units lj
dimension 3
boundary p p p

atom_style hybrid angle mdpd
neighbor 0.3 bin
neigh_modify delay 4 every 2
comm_modify vel yes

read_data system.data
Reading data file ...
  orthogonal box = (0.0000000 -25.000000 -25.000000) to (37.700000 25.000000 25.000000)
  2 by 2 by 2 MPI processor grid
  reading atoms ...
  12000 atoms
  scanning bonds ...
  1 = max bonds/atom
  scanning angles ...
  1 = max angles/atom
  reading bonds ...
  9000 bonds
  reading angles ...
  6000 angles
Finding 1-2 1-3 1-4 neighbors ...
  special bond factors lj:    0        0        0       
  special bond factors coul:  0        0        0       
     2 = max # of 1-2 neighbors
     1 = max # of 1-3 neighbors
     2 = max # of 1-4 neighbors
     3 = max # of special neighbors
  special bonds CPU = 0.001 seconds
  read_data CPU = 0.660 seconds

region  water  cylinder x 0 0 6 INF INF
create_atoms 3 random 16000 2021 water
Created 16000 atoms
  using lattice units in orthogonal box = (0.0000000 -25.000000 -25.000000) to (37.700000 25.000000 25.000000)
  create_atoms CPU = 0.002 seconds

#fix 1 all property/atom d_meso/rho
#compute 10 all sph/rho/atom

group 1 type 1
3000 atoms in group 1
group 2 type 2
9000 atoms in group 2
group water type 3
16000 atoms in group water
group membrane type 1:2
12000 atoms in group membrane
group all union water membrane
28000 atoms in group all

group aa union 1 2 water
28000 atoms in group aa
set group aa sph/rho 6
Setting atom values ...
  28000 settings made for sph/rho


bond_style harmonic
bond_coeff 1 400 0.64
bond_coeff 2 400 0.64

angle_style harmonic
angle_coeff 1 100 160
angle_coeff 2 100 160

pair_style hybrid/overlay mdpd/rhosum mdpd 1.0 1.0 65689
pair_coeff  *  *   mdpd/rhosum  0.75

pair_coeff  1  1   mdpd  -19.0  25.0  12  1.0  0.75
pair_coeff  1  2   mdpd  -5.98  25.0  12  1.0  0.75
pair_coeff  1  3   mdpd  -32.18 25.0  12  1.0  0.75
pair_coeff  2  2   mdpd  -22.0  25.0  12  1.0  0.75
pair_coeff  2  3   mdpd  -27.0  25.0  12  1.0  0.75
pair_coeff  3  3   mdpd  -40.0  25.0  12  1.0  0.75


dump 20 all atom 100 min-l.lammpstrj

neigh_modify every 1 delay 0 check yes
min_style cg
minimize 0 0 1000 10000

CITE-CITE-CITE-CITE-CITE-CITE-CITE-CITE-CITE-CITE-CITE-CITE-CITE

Your simulation uses code contributions which should be cited:

- pair mdpd command:

@Article{ZLi2013_POF,
 author = {Li, Z. and Hu, G.H. and Wang, Z.L. and Ma Y.B. and Zhou, Z.W.},
 title = {Three dimensional flow structures in a moving droplet on substrate: a dissipative particle dynamics study},
 journal = {Physics of Fluids},
 year = {2013},
 volume = {25},
 pages = {072103}
}

CITE-CITE-CITE-CITE-CITE-CITE-CITE-CITE-CITE-CITE-CITE-CITE-CITE

Neighbor list info ...
  update every 1 steps, delay 0 steps, check yes
  max neighbors/atom: 2000, page size: 100000
  master list distance cutoff = 1.3
  ghost atom cutoff = 1.3
  binsize = 0.65, bins = 58 77 77
  2 neighbor lists, perpetual/occasional/extra = 2 0 0
  (1) pair mdpd/rhosum, perpetual
      attributes: full, newton on
      pair build: full/bin
      stencil: full/bin/3d
      bin: standard
  (2) pair mdpd, perpetual, half/full from (1)
      attributes: half, newton on
      pair build: halffull/newton
      stencil: none
      bin: none
Per MPI rank memory allocation (min/avg/max) = 9.822 | 9.832 | 9.847 Mbytes
Step Temp E_pair E_mol TotEng Press 
       0            0    40.483196    5.1309802    45.614176    13.086209 
    1000            0   -6.7332432  0.030398097   -6.7028451  -0.47616673 
Loop time of 87.1689 on 8 procs for 1000 steps with 28000 atoms

91.2% CPU use with 8 MPI tasks x 1 OpenMP threads

Minimization stats:
  Stopping criterion = max iterations
  Energy initial, next-to-last, final = 
      45.6141761270746  -6.70283604654041  -6.70284509399857
  Force two-norm initial, final = 64082.866 15229.943
  Force max component initial, final = 2475.0464 269.41823
  Final line search alpha, max atom move = 5.8306409e-07 0.00015708810
  Iterations, force evaluations = 1000 6340

MPI task timing breakdown:
Section |  min time  |  avg time  |  max time  |%varavg| %total
---------------------------------------------------------------
Pair    | 44.429     | 46.526     | 49.089     |  22.6 | 53.37
Bond    | 0.6088     | 0.66734    | 0.72067    |   5.3 |  0.77
Neigh   | 1.5303     | 1.6545     | 1.7578     |   6.7 |  1.90
Comm    | 20.825     | 23.653     | 26.33      |  33.9 | 27.13
Output  | 0.16265    | 0.19915    | 0.2438     |   6.2 |  0.23
Modify  | 0          | 0          | 0          |   0.0 |  0.00
Other   |            | 14.47      |            |       | 16.60

Nlocal:        3500.00 ave        3521 max        3453 min
Histogram: 1 0 0 0 1 0 0 3 1 2
Nghost:        2267.88 ave        2324 max        2216 min
Histogram: 2 1 0 0 0 0 4 0 0 1
Neighs:        82334.6 ave       86318 max       78434 min
Histogram: 3 0 1 0 0 0 0 0 2 2
FullNghs:      164669.0 ave      166229 max      163310 min
Histogram: 1 1 2 0 1 0 1 0 0 2

Total # of neighbors = 1317354
Ave neighs/atom = 47.048357
Ave special neighs/atom = 1.2857143
Neighbor list builds = 70
Dangerous builds = 0

fix         mvv     all mvv/dpd 0.65

compute             mythermo all temp
thermo              100
thermo_modify       temp mythermo
thermo_modify       flush yes

thermo_modify	 lost ignore lost/bond ignore

timestep 0.01

#dump 1 membrane atom 1000 membrane-big.lammpstrj
dump 2 all atom 100 all.lammpstrj
#dump 3 water atom 1000 water-big.lammpstrj

run 350000
Per MPI rank memory allocation (min/avg/max) = 9.833 | 9.842 | 9.857 Mbytes
Step Temp E_pair E_mol TotEng Press 
    1000            0   -6.7332432  0.030398097   -6.7028451  -0.51477409 
    1100    1.0346856   -4.8844239   0.28046474   -3.0519861 -0.065857292 
    1200    1.0415281   -4.8543784   0.28613139   -3.0060107  0.021164567 
    1300    1.0160809   -4.7484829   0.27988054   -2.9445355   0.16222877 
    1400   0.99724641   -5.0559314    0.2867975   -3.2733177 -0.028805772 
    1500   0.99261811   -5.1109607   0.27447062   -3.3476161 -0.056060636 
    1600   0.98965999   -4.9814776   0.27941619   -3.2176244  0.019033468 
    1700    0.9937657   -5.1436811   0.27947726   -3.3736086 -0.061840542 
    1800   0.99548968   -5.0121704   0.27890762   -3.2400816  -0.02016379 
    1900    0.9944661   -5.0600027   0.27814687     -3.29021 0.0076003816 
    2000   0.98892764   -5.0476831   0.27690293   -3.2874417 -0.019065689 
    2100   0.99154387   -5.0475647   0.28047459   -3.2798274 -0.036517066 
    2200   0.99131003   -5.0456242   0.28358993   -3.2751223 -0.029225828 
    2300   0.99332166   -5.0814284   0.28017865   -3.3113204 -0.028177853 
    2400   0.98508968   -5.0658236   0.28186036   -3.3063815  -0.02096764 
    2500    0.9895926   -5.0786466   0.27999284   -3.3143178 -0.035096469 
    2600   0.98620657   -5.0755549   0.27894787     -3.31735 -0.020962951 
    2700    1.0044467   -5.0690923    0.2739877   -3.2884883 -0.021689368 
    2800   0.99575299    -5.057589   0.28239814   -3.2816147 -0.029782098 
    2900   0.98037768   -5.0451679   0.27943747   -3.2952164 0.0039746515 
    3000   0.98847478      -5.0832   0.28142757   -3.3191132 -0.0080217158 
    3100   0.99081956   -5.0584997   0.27545179   -3.2968717 -0.026426547 
    3200   0.99388492   -5.0910134   0.27652278   -3.3237165 -0.010710123 
    3300   0.98952044   -5.0699377   0.28228674   -3.3034233 -0.048903903 
    3400    0.9958495   -5.0664299   0.27724589   -3.2954631 -0.024435313 
    3500   0.98741966   -5.0512041    0.2802152   -3.2899123 -0.012571064 
    3600   0.99299239   -5.0920969   0.28037462   -3.3222869 -0.012169127 
    3700    0.9959858   -5.0838391   0.28511422   -3.3047995 -0.016618278 
    3800   0.99668845   -5.0267745    0.2769178   -3.2548774 -0.009269442 
    3900   0.98725207   -5.0793674   0.27955478   -3.3189874 -0.022858627 
    4000   0.97831771   -5.0429419   0.28099592   -3.2945218 -0.035473293 
    4100   0.99076435    -5.079044   0.28068689   -3.3122637 -0.047332794 
    4200   0.99011986   -5.0438288   0.28098672   -3.2777153   0.01862126 
    4300   0.98836954   -5.1051758   0.27661713   -3.3460573 -0.061799051 
    4400   0.98963056   -5.0695467   0.27529917   -3.3098547  0.016032718 
    4500   0.98218632   -5.0532906   0.27874098   -3.3013228 -0.0092058004 
    4600   0.98457349   -5.0804866    0.2854892   -3.3181899 0.0035591156 
    4700   0.99478047   -5.0685597   0.28084614   -3.2955962 -0.016603352 
    4800   0.99600268   -5.0588558   0.28735982   -3.2775453 -0.045258168 
    4900   0.98677285   -5.0895113   0.27884234   -3.3305626 -0.047755474 
    5000   0.98914656   -5.0761643   0.27736496   -3.3151325 -0.028512296 
    5100   0.99623618   -5.0681351   0.27557737   -3.2982569 -0.049444554 
    5200   0.98757314   -5.0009359   0.28078537   -3.2388437 -0.017229173 
    5300    1.0026888   -5.1009986   0.27820607   -3.3188131 -0.045425974 
    5400   0.99327767   -5.0247862   0.27668154   -3.2582414 -0.014364604 
    5500   0.98937745   -5.0690665     0.284942   -3.3001113 -0.013103718 
    5600   0.99095336   -5.0073174   0.28233936   -3.2386011  0.031281469 
    5700   0.98561139   -5.1109532   0.27582074   -3.3567682 -0.023587172 
    5800   0.99380583   -5.0293021   0.27940622   -3.2592404 0.0006010591 
    5900   0.98794363   -5.0972902   0.27561758   -3.3398101  -0.01825441 
    6000   0.99883129   -5.0501727   0.27504068   -3.2769386 -0.042154718 
    6100    0.9837149   -5.0634643   0.28048216   -3.3074625 -0.011874612 
    6200   0.99167716   -5.0804986   0.27817957   -3.3148565 -0.066300992 
    6300   0.98687303   -5.0257539   0.28324333   -3.2622539 -0.022391794 
    6400   0.97876245   -5.0301464   0.27485281   -3.2872023 -0.0097660258 
    6500   0.99701616   -5.0821759   0.27996732   -3.3067378 -0.037314968 
    6600   0.99850549    -5.059079   0.28191325    -3.279461 -0.020566736 
    6700   0.99174759   -5.0281559   0.28000096   -3.2605867  0.015756659 
    6800   0.98626173   -5.0487494   0.28092621   -3.2884835 -0.0049629229 
    6900   0.98725973   -5.0195443   0.28034535   -3.2583622  0.020048487 
    7000   0.99522966    -5.067744   0.27964193   -3.2953109 -0.041675388 
    7100     0.992163   -5.0835812   0.27715415   -3.3182357 -0.039336532 
    7200   0.99784426    -5.096466   0.28032203   -3.3194311 -0.034679593 
    7300   0.99066653   -5.0437922   0.27604804   -3.2817975 0.0055417856 
    7400   0.99621131   -5.0333716   0.27965815   -3.2594498 -0.038759163 
    7500   0.99357346   -5.0600306   0.28092376   -3.2887998 -0.030132714 
    7600   0.98837959   -5.0454027   0.27433086   -3.2885554 -0.022158255 
    7700   0.99596244   -5.0767361   0.28049286    -3.302353  -0.03108644 
    7800   0.98249893   -5.0432081   0.27775125   -3.2917611 -0.031229774 
    7900   0.99098264   -5.0378238   0.28016775   -3.2712352 -0.016523291 
    8000    0.9943122   -5.0213257   0.27813081   -3.2517799 -0.031513729 
    8100   0.98895078    -5.069928   0.28328595   -3.3032689 -0.027841641 
    8200   0.98285596   -5.0394086   0.27727704   -3.2879003 -0.037070249 
    8300   0.99059644   -5.0570918   0.28488521    -3.286365 -0.031207415 
    8400   0.98802542   -5.0639422   0.28643795   -3.2955191 -0.024928474 
    8500   0.99271854   -5.0420248   0.28479096   -3.2682092 -0.038732037 
    8600   0.99648189   -5.0493158   0.28190327    -3.272743  0.014706416 
    8700     0.988189   -5.0585241   0.27489689   -3.3013967 -0.0021081852 
    8800    0.9863422   -5.0470011   0.27454291   -3.2929977 -0.005972097 
    8900   0.98276776   -5.0872327   0.27962851   -3.3335052  -0.04274735 
    9000   0.98561804   -5.0552637   0.28088168   -3.2960078 -0.016992102 
    9100    1.0009249   -5.0726747   0.27920322   -3.2921378 -0.021573917 
    9200    0.9885343   -5.0818121   0.27447028   -3.3245933 -0.019038962 
    9300   0.98842691   -5.0096149   0.27655059   -3.2504769 0.0026462655 
    9400   0.98785786    -5.061328   0.27921264   -3.3003815 -0.027243361 
    9500   0.99607191   -5.0540617   0.28028159   -3.2797256 -0.011694457 
    9600   0.98384982   -5.0734344   0.28088088   -3.3168315 -0.026597556 
    9700    0.9987188   -5.0452398    0.2854054   -3.2618097 -0.016324637 
    9800   0.99025049    -5.048031   0.27942838   -3.2832799 -0.033255154 
    9900   0.98342777   -5.0494914   0.28192994   -3.2924724 -0.029188651 
   10000   0.99158187    -5.063135   0.27591693   -3.2998984 -0.0091468513 
   10100   0.98708108   -5.0541344   0.27804929   -3.2955164  -0.03350767 
   10200   0.98628321   -5.0706503   0.28087069   -3.3104076  -0.01739181 
   10300   0.98016232   -5.0417048   0.27687087    -3.294643 -0.014812938 
   10400   0.98224201   -5.0758781     0.277953   -3.3246147 -0.034217995 
   10500   0.99722288   -5.0420004   0.27595141   -3.2702681 0.0058682051 
   10600   0.98061512   -5.0939619   0.27972202   -3.3433697 -0.043593486 
   10700   0.98891605   -5.0078346   0.28164114   -3.2428724 -0.007851561 
   10800   0.99356499   -5.0835186   0.27898643   -3.3142379 -0.035779039 
   10900   0.99303565    -5.027292   0.27974725   -3.2580445 -0.0031717605 
   11000   0.99635449   -5.0748334   0.28189167   -3.2984634 -0.031124975 
   11100   0.99204146   -5.0217435   0.28143827   -3.2522961 -0.0055955015 
   11200   0.99459049   -5.0664841    0.2838142   -3.2908375 -0.034310686 
   11300   0.98784169   -5.0428212   0.28173588   -3.2793757 0.0044370589 
   11400   0.99370413    -5.065914   0.28566209    -3.289749 -0.026866894 
   11500    0.9906173   -5.0381216   0.28061133   -3.2716374  0.022409215 
   11600   0.98961622   -5.0932879   0.27519319   -3.3337234 -0.020185025 
   11700   0.99210655   -5.0410853   0.27641091   -3.2765677  0.020887756 
   11800   0.99516203   -5.1084149   0.27747972   -3.3382455 -0.068415293 
   11900   0.98929322   -5.0182731   0.28353598   -3.2508503 0.0032174985 
   12000    0.9980132   -5.0949048   0.28026733   -3.3176712 -0.039581847 
   12100   0.99154734   -5.0219013   0.27379161   -3.2608418 0.0027204245 
   12200    0.9895576   -5.0883618   0.28294799   -3.3211304 -0.048220111 
   12300   0.99683762   -5.0143169   0.28119552   -3.2379184 -0.0095486304 
   12400   0.98822759   -5.0730917   0.27607727    -3.314726 -0.056278934 
   12500   0.98936708   -5.0343167   0.27803776   -3.2722813 -0.0074640175 
   12600   0.98523665   -5.0796349   0.27998934   -3.3218434 -0.031864329 
   12700   0.98790206   -5.0400048   0.28472111   -3.2734835 0.0093146588 
   12800   0.98102558   -5.0684296   0.28053936   -3.3164044 -0.031577748 
   12900   0.98240494   -5.0210072   0.27729817   -3.2701542 0.0058198292 
   13000   0.99588171   -5.0639842   0.27601598    -3.294199 -0.034878681 
   13100   0.98916775   -5.0412151    0.2814345    -3.276082 -0.051123729 
   13200   0.99009811   -5.0528509   0.27400917   -3.2937476 -0.020998034 
   13300   0.99147416   -5.0309939   0.28254452   -3.2612912 -0.0021613223 
   13400   0.98458705   -5.0511722   0.27393306   -3.3004113 -0.0040217863 
   13500   0.98974211   -5.0381362   0.27793045   -3.2756456 0.0052839419 
   13600   0.99902229   -5.0729683   0.27575252   -3.2987358 -0.030480212 
   13700   0.98537042   -5.0434568   0.28539416   -3.2800598 -0.031221363 
   13800   0.99548781   -5.0635944   0.28030985   -3.2901062  -0.03960917 
   13900   0.98491218   -5.0587914   0.27609436   -3.3053816  0.001143486 
   14000   0.99008397   -5.0737396   0.28649847   -3.3021682 -0.041519564 
   14100    0.9961896   -5.0534515    0.2792652   -3.2799553  0.018898282 
   14200   0.99274975   -5.0653896   0.28049587   -3.2958223 -0.025955601 
   14300    0.9803049   -5.0577398   0.28152865   -3.3058063 -0.014771781 
   14400   0.99087458   -5.0822998   0.27856263   -3.3174784 -0.046804358 
   14500    0.9941308   -5.0311333   0.27948558   -3.2605048  -0.04439261 
   14600   0.99629242   -5.0454704   0.28758038   -3.2635048 -0.053521364 
   14700   0.99749416    -5.042152   0.28117823    -3.264786 -0.037441006 
   14800   0.98686111   -5.0406329   0.28066793   -3.2797261 -0.023098601 
   14900    0.9856171   -5.0711409   0.27936005    -3.313408 -0.023620456 
   15000   0.99275405   -5.0345154   0.27460476   -3.2708328 -0.0058552231 
   15100   0.98740277    -5.055221   0.27607199   -3.2980977 -0.031646774 
   15200   0.99292741   -5.0699517    0.2802059   -3.3004079 -0.028345934 
   15300   0.99589821   -5.0573296   0.27607474   -3.2874609 0.0072811398 
   15400   0.99366887   -5.0695628   0.28019238   -3.2989204 -0.035126841 
   15500   0.98594845   -5.0673223   0.28478759   -3.3036648 -0.037550895 
   15600   0.99153993   -5.0703073   0.27717469   -3.3058758 -0.015306417 
   15700   0.98815493   -5.0413596   0.27897344   -3.2802067 -0.00041414842 
   15800   0.99670751   -5.0766876   0.28634786   -3.2953318 -0.030633805 
   15900    1.0026107   -5.0913673   0.27692529   -3.3105796 -0.046086649 
   16000    0.9955821   -5.0408464   0.27734062    -3.270186 -0.017526146 
   16100   0.99195432   -5.0454832   0.27669846   -3.2809064 -0.0031124901 
   16200   0.99122088   -5.0865752   0.28376394    -3.316033  -0.04488489 
   16300   0.98351794   -5.0146971    0.2744661   -3.2650067 -0.016994297 
   16400   0.99269835   -5.0361074   0.27988112   -3.2672319 0.0026933833 
   16500   0.99523136   -5.0590153   0.28021212   -3.2860095 -0.0016312234 
   16600   0.98577788   -5.0629901   0.27787495   -3.3065012 -0.044332589 
   16700   0.99277102   -5.0259957   0.28552776   -3.2513646 -0.028775709 
   16800   0.98615687   -5.0686295   0.27377035   -3.3156767 -0.024809831 
   16900   0.98980757   -5.0013849   0.27646098   -3.2402656 -0.014005018 
   17000    0.9898332   -5.0676806   0.28547681    -3.297507 -0.032342354 
   17100   0.98877441   -5.0422031   0.27697278   -3.2821216  -0.01873655 
   17200   0.98982663   -5.0700211   0.27703932   -3.3082948 -0.058651643 
   17300   0.99552562   -5.0511282   0.28071256   -3.2771805 -0.015301096 
   17400   0.99437724   -5.0443894   0.27606807   -3.2768087 -0.020472604 
   17500   0.98171683    -5.059018   0.27763218   -3.3088632 -0.033962607 
   17600   0.99759142   -5.0765004   0.28364349   -3.2965232 -0.034654701 
   17700   0.99323859   -5.0582912   0.28332092   -3.2851656  0.013215902 
   17800   0.99027218   -5.0545098    0.2798724   -3.2892821  -0.04038268 
   17900    0.9967235   -5.0629032   0.27730871   -3.2905626 -0.030546288 
   18000   0.99276706   -5.0685408   0.28603216   -3.2934112 -0.043934643 
   18100   0.99625787   -5.0528451   0.27033798   -3.2881737 -0.030766601 
   18200   0.99552551    -5.025066   0.27721735   -3.2546138 -0.027958503 
   18300   0.99856581   -5.0365279   0.27576694   -3.2629658 -0.010796666 
   18400   0.98878655   -5.0468147   0.27696768   -3.2867202 -0.024894296 
   18500   0.99140972     -5.05282    0.2828671   -3.2828914 -0.038814493 
   18600   0.99045859   -5.0997089   0.27632047   -3.3377536 -0.059664703 
   18700   0.99317782   -5.0198985   0.28328467   -3.2469003 -0.018064765 
   18800   0.98198479   -5.0995516   0.28033273   -3.3462943 -0.061875456 
   18900   0.98470645   -5.0048861   0.28027639   -3.2476028  0.016282638 
   19000   0.99070978   -5.0441226   0.28538174   -3.2727292 -0.028212985 
   19100   0.99022433   -5.0339296   0.27948403   -3.2691621 -0.039451065 
   19200   0.99181231   -5.0582622   0.27876805   -3.2918288  -0.03415393 
   19300   0.98632357    -5.082117   0.27548847    -3.327196 -0.038755347 
   19400   0.99819348   -5.0486193   0.28492896   -3.2664536 -0.0091178691 
   19500   0.99656798   -5.0765245   0.27823093    -3.303495 -0.052755527 
   19600   0.99132172    -5.030967   0.27570198   -3.2683355  -0.01906774 
   19700   0.99405422   -5.1106843   0.28028152   -3.3393747 -0.016433883 
   19800   0.99348189    -5.062897   0.28099176   -3.2917356 -0.018354741 
   19900   0.98788593   -5.0905954   0.28564851    -3.323171  -0.05545733 
   20000   0.99622981    -5.042257    0.2794162   -3.2685495 -0.0036544563 
   20100   0.98443924   -5.0755076   0.28097654    -3.317925  -0.01981678 
   20200   0.98806112   -5.0758539   0.27422658   -3.3195886 -0.045368208 
   20300   0.98202224   -5.0876486   0.27704636   -3.3376215 -0.053163298 
   20400   0.99358416   -5.0682125    0.2808118   -3.2970777 0.0020611195 
   20500   0.99375899   -5.0948204   0.27701026   -3.3272249 -0.028428924 
   20600   0.98701246   -5.0716018   0.28400975   -3.3071263 -0.040078513 
   20700   0.98801969   -5.0532965   0.27624493   -3.2950749 -0.0047350393 
   20800   0.99240494   -5.0502371   0.27738819   -3.2842947 -0.019133761 
   20900   0.99346424   -5.0578145   0.27795399   -3.2897174  -0.04950938 
   21000   0.98654612   -5.0572512   0.27680395    -3.300681 -0.014532909 
   21100   0.99137733   -5.0334795   0.27704776   -3.2694189  -0.01316442 
   21200   0.97962858   -5.0753154   0.27997686   -3.3259481 -0.054514497 
   21300   0.99262699   -5.0910837   0.28132583   -3.3208705 -0.0070924616 
   21400    0.9892812   -5.0510174   0.27883168   -3.2883169 -0.027886335 
   21500   0.99173007   -5.0774903   0.28262094   -3.3073274 -0.042814441 
   21600   0.98165344   -5.0466764    0.2753357   -3.2989132 -0.012741247 
   21700   0.99159161   -5.0463475   0.27446247   -3.2845507 -0.039967802 
   21800   0.99763642   -5.0431848   0.28135891   -3.2654247  0.014589665 
   21900   0.99635535   -5.0770379   0.27782241   -3.3047358 -0.045731748 
   22000   0.98643933    -5.004433   0.28318004   -3.2416468 -0.017468376 
   22100   0.99491068   -5.0741714   0.27862816   -3.3032305 -0.021505954 
   22200   0.99091663   -5.0649805   0.28653218   -3.2921265 -0.048223312 
   22300   0.98987105   -5.0590202   0.27914762    -3.295119 -0.038022478 
   22400   0.99310826   -5.0397533   0.27913814    -3.271006 -0.029973369 
   22500   0.98316361   -5.0817014   0.27645826   -3.3305504 0.0038223364 
   22600   0.99883923   -5.0949474   0.27623811   -3.3205039 -0.017483218 
   22700   0.99282955   -5.0177273   0.28577515    -3.242761   0.02506577 
   22800   0.99856505    -5.094332   0.27883366   -3.3177043 -0.071898833 
   22900   0.97935796   -5.0476522   0.27939243   -3.2992753 -0.053362855 
   23000   0.99152908   -5.0594935   0.27946165   -3.2927913  0.011524622 
   23100   0.99382291   -5.0836034     0.277652   -3.3152703  -0.04610902 
   23200   0.98508759   -5.0509929   0.27900347   -3.2944108 -0.018482876 
   23300   0.98932362   -5.0567971    0.2825472   -3.2903175 -0.066795481 
   23400   0.99730798   -5.0450281   0.28121752    -3.267902 -0.011837642 
   23500   0.98696652    -5.025566   0.27737965   -3.2677894 -0.0041872311 
   23600   0.99051927   -5.0713701   0.28307801   -3.3025663 -0.059171304 
   23700   0.99488885   -5.0536429   0.27718823   -3.2841747 -0.045484791 
   23800   0.99649434   -5.0647782   0.28411124   -3.2859789 -0.032740495 
   23900   0.98374069   -5.0548969   0.27750889   -3.3018297 -0.052521641 
   24000   0.98908446   -5.0235719   0.27972111   -3.2602771 0.0019565249 
   24100   0.98890329   -5.1060428   0.27885891   -3.3438819  -0.04666357 
   24200   0.98801156     -5.01414   0.28185544   -3.2503202 -0.010700584 
   24300   0.98651534   -5.0351766   0.28010572   -3.2753507 -0.029195694 
   24400    1.0005033     -5.06264   0.27795543   -3.2839831 -0.0071852427 
   24500   0.99245826   -5.0305751   0.27736609   -3.2645748 -0.0096342482 
   24600   0.98176252   -5.0609336   0.27992597   -3.3084164 -0.028696905 
   24700   0.98891222   -5.0734799   0.28692498   -3.3032396 -0.0048143048 
   24800   0.99613458   -5.0360332   0.27732348   -3.2645612  0.021059378 
   24900   0.98610939   -5.0738031   0.28105085    -3.313641 -0.025572732 
   25000   0.99541948   -5.0157632   0.27951804   -3.2431693  0.023657754 
   25100   0.99288228   -5.0460104   0.28365471   -3.2730854 -0.037217725 
   25200   0.98315928   -5.0599263   0.27941325   -3.3058268 -0.037916056 
   25300   0.98865483   -5.0128865    0.2809703    -3.248987  0.011264071 
   25400    0.9899467   -5.0731967   0.27664646   -3.3116832 -0.041713122 
   25500    0.9915752   -5.0438598   0.28158846   -3.2749616 -0.017177326 
   25600   0.99366112   -5.0341875   0.27720998   -3.2665391 -0.0019274096 
   25700   0.98543041   -5.0615385   0.27862896   -3.3048167 -0.035280963 
   25800   0.99211187   -5.0662177   0.27585649   -3.3022465 -0.0059313644 
   25900   0.99108753   -5.0561871   0.27860256   -3.2910063 -0.064013812 
   26000   0.98898566   -5.0651907   0.27355095   -3.3082142  -0.06623252 
   26100   0.98776576   -5.0642809   0.28153921    -3.301146 -0.0046119819 
   26200   0.99248012   -5.0544766   0.28084169   -3.2849679 -0.039008227 
   26300   0.99018185   -5.0697685    0.2801078    -3.304441 -0.020373238 
   26400   0.98752361    -5.062284   0.28068896   -3.3003625  0.012504043 
   26500   0.99698573   -5.0750492   0.28058687   -3.2990371 -0.051129535 
   26600   0.98198352   -5.0517626   0.28210781   -3.2967321 -0.032328983 
   26700   0.98584933   -5.0683944   0.27864667   -3.3110266 -0.015187704 
   26800   0.98937484   -5.0408456   0.27815145   -3.2786849 -0.035659254 
   26900   0.99608327    -5.084411   0.27383326   -3.3165062 -0.063109119 
   27000   0.98683581   -5.0589214   0.27403922   -3.3046813 -0.033718875 
   27100   0.99314342   -5.0503852   0.27814962   -3.2825737 -0.022813214 
   27200   0.98818947   -5.0740019   0.28776966    -3.304001 -0.029592567 
   27300   0.98792519   -4.9958477   0.27536611   -3.2386467  0.019617486 
   27400   0.99060691   -5.0685015   0.28078939   -3.3018548 -0.051327451 
   27500   0.98727496   -5.0650988   0.28103937   -3.3031998 -0.069276373 
   27600   0.98586228   -5.0324857   0.27585232   -3.2778928 -0.020379511 
   27700     0.986329   -5.1125347   0.28506388   -3.3480302 -0.037761113 
   27800   0.98622244   -5.0386274   0.27423946   -3.2851071 -0.0054079379 
   27900   0.98946288   -5.0630227   0.28257039    -3.296311 -0.029717036 
   28000   0.99491122   -5.0451111   0.27661063    -3.276187 -0.036366878 
   28100   0.99232461   -5.0583092   0.27823719   -3.2916382 -0.017026599 
   28200   0.99147251   -5.0378723   0.28115183   -3.2695648 -0.026279338 
   28300    1.0003161   -5.0336395   0.27797372   -3.2552452 -0.015571053 
   28400   0.98490639   -4.9871084   0.28083541   -3.2289662 -0.047435877 
   28500   0.99039517   -5.0779168   0.28204574   -3.3103314 -0.053900829 
   28600    0.9907542   -5.0225184   0.27659304   -3.2598471 -0.005516652 
   28700   0.98798871   -5.0491674   0.27570946   -3.2915278 -0.048975752 
   28800   0.99651692   -5.0183996   0.27926938   -3.2444083 0.0037449745 
   28900   0.98347023   -5.0903861    0.2811579   -3.3340755 -0.0032913137 
   29000     1.000436   -5.0473535   0.28488796   -3.2618652 -0.041310472 
   29100   0.98813704   -5.0655412    0.2774151   -3.3059735   -0.0313189 
   29200   0.99037429   -5.0410621   0.27893224   -3.2766214   -0.0708524 
   29300   0.97989849   -5.0432629   0.27946417   -3.2940035 -0.025864223 
   29400   0.98324637   -5.0680131   0.27745229    -3.315744 -0.026729253 
   29500   0.99329421   -5.0057947   0.28204787   -3.2338587 -0.013802415 
   29600   0.99283554    -5.075522   0.28285226   -3.3034696  0.011185526 
   29700   0.98448647   -5.0292344   0.28077812   -3.2717793 -0.024310943 
   29800   0.99188774   -5.0647884   0.28119555   -3.2958144 -0.024421275 
   29900   0.99523921   -5.0582751     0.277704   -3.2877655 -0.018583007 
   30000   0.98860335   -5.0370986   0.27848756    -3.275759 -0.021726328 
   30100   0.98609384   -5.0537207   0.28056445   -3.2940683 -0.056290008 
   30200   0.99483847   -5.0327262   0.27742532   -3.2630965 -0.0078160802 
   30300   0.98708397   -5.0850572   0.28329908    -3.321185 -0.052705338 
   30400   0.98709483   -4.9915544   0.28348915   -3.2274759  0.009934561 
   30500   0.99323023   -5.0801352   0.28075776   -3.3095853 -0.058772999 
   30600   0.98943105   -5.0486446    0.2802474   -3.2843036 -0.019663639 
   30700   0.98995368   -5.0648044   0.27160299    -3.308324 -0.017305452 
   30800   0.99181489   -5.0614123   0.28245989   -3.2912832 -0.042518211 
   30900   0.98569054   -5.0509013   0.27892981   -3.2934885 -0.078195751 
   31000   0.98962244   -5.0654428   0.27483922   -3.3062229 -0.023044592 
   31100    1.0003684   -5.0432613   0.27628332   -3.2664791 -0.068389879 
   31200   0.98192775   -5.0841478   0.28289441   -3.3284144 -0.064179492 
   31300   0.99480227   -5.0464818   0.27986994   -3.2744617 -0.013510194 
   31400   0.99168931   -5.0421861   0.28252902   -3.2721762  0.012396339 
   31500   0.98782958   -5.0426586   0.27534976   -3.2856174 -0.030024436 
   31600   0.98816896     -5.08356   0.27832676   -3.3230327 -0.058390872 
   31700   0.98540089   -5.0578558   0.28286141   -3.2969458 -0.023003317 
   31800   0.99563102   -5.0836513   0.28074862   -3.3095095 0.00045049948 
   31900   0.99774114   -5.0690803   0.27286592   -3.2996561 -0.00042948658 
   32000   0.98655144   -5.0688157   0.27584327   -3.3131981 -0.052981238 
   32100   0.99147446   -5.0320345   0.28546469   -3.2594113 -0.027684714 
   32200   0.98406415     -5.06036   0.27869009   -3.3056264 -0.047958659 
   32300   0.99406943   -5.0220669   0.27684899    -3.254167 -0.022065915 
   32400   0.98624453   -5.0643911   0.28056919   -3.3045079 -0.030983129 
   32500   0.99105018   -5.0305609   0.28312812   -3.2609106 0.0020624633 
   32600    0.9841708   -5.1175894   0.28291286   -3.3584731 -0.033343795 
   32700   0.99980386   -5.0183152   0.27825568   -3.2404073  0.012792047 
   32800   0.99338451   -5.0644359   0.28378721   -3.2906251 -0.065295922 
   32900   0.99181515   -5.0693626   0.27917392   -3.3025191 -0.035472932 
   33000   0.99398382   -5.0863647   0.28325723    -3.312185 -0.043186232 
   33100   0.99758135   -5.0349545   0.27862014   -3.2600158 -0.003716673 
   33200   0.99405084    -5.048752   0.28459179   -3.2731372 -0.048176812 
   33300   0.98828015   -5.0444269   0.27231422   -3.2897454 -0.036203105 
   33400   0.99295179   -5.0643388   0.28371076   -3.2912535 -0.020080314 
   33500   0.98843371   -5.0473912    0.2824366   -3.2823569 -0.046202843 
   33600    0.9870486   -5.0400139   0.27869923   -3.2807946 -0.0060149171 
   33700   0.98901537   -5.0105631   0.27960173   -3.2474913 0.0013002126 
   33800   0.98657251   -5.0353346   0.27899355   -3.2765351 -0.0059748209 
   33900   0.99550945   -5.0617828   0.28246497    -3.286107 -0.037132228 
   34000   0.98751775   -5.0232006   0.28342917   -3.2585477 0.0063996558 
   34100   0.99272136   -5.0457495   0.28060229   -3.2761184 -0.051666267 
   34200   0.99079796   -5.0989802    0.2783622   -3.3344741 -0.011725516 
   34300   0.99583522   -5.0046883   0.28083232   -3.2301565 -0.011897088 
   34400   0.98938412   -5.0845038   0.27958978   -3.3208908 -0.044065008 
   34500   0.98904131   -5.0121045   0.27305565   -3.2555398  0.026539454 
   34600    0.9883057   -5.0665072   0.28283024   -3.3012714 -0.037989043 
   34700   0.98749862   -5.0231174   0.28043859   -3.2614838 -0.0063224745 
   34800   0.98522967   -5.0389805   0.28013104   -3.2810577 -0.0088909832 
   34900   0.98877775   -5.0332501   0.28124845   -3.2688879 -0.030766514 
   35000     0.979656    -5.079381   0.28068521   -3.3292642 -0.048976854 
   35100   0.98912091   -5.0293582    0.2789053   -3.2668245 -0.010055202 
   35200    0.9925526   -5.0072279   0.28523317    -3.233219 -0.031407395 
   35300   0.99622284   -5.0822965   0.28101003   -3.3070056 -0.079544227 
   35400     0.990611   -5.0355236   0.28095222   -3.2687079 -0.018104239 
   35500   0.98791577   -5.0789643   0.27961071   -3.3175329 -0.039685033 
   35600   0.99078211   -5.0453099   0.27804958   -3.2811402 -0.035961876 
   35700   0.99340934   -5.0595991   0.27907096   -3.2904673 -0.017275701 
   35800   0.98899172   -5.0342663    0.2744163   -3.2764154 -0.024219079 
   35900   0.99313685   -5.0417243   0.28026297   -3.2718093 0.0013192086 
   36000   0.99319419   -5.0504495   0.27826428   -3.2824472 -0.018701485 
   36100   0.98908258   -5.0416679   0.27819824   -3.2798988 -0.029589623 
   36200   0.98598294   -5.1084427   0.28272473   -3.3467964 -0.044195177 
   36300   0.99052166    -5.004388   0.27760477   -3.2410538 -0.0035197069 
   36400   0.98742096   -5.0309153   0.28061967   -3.2692171 -0.017937808 
   36500   0.98645326   -5.0670477   0.28164244   -3.3057782 -0.054845953 
   36600   0.98285535   -5.0267366   0.27633185   -3.2761744 -0.014495143 
   36700   0.99289966   -5.0545708   0.28025094   -3.2850236 -0.0083496851 
   36800   0.97739379   -5.0185441   0.27585433   -3.2766515 -0.0050270982 
   36900   0.98430061   -5.0654199   0.27375905   -3.3152627 -0.041491061 
   37000   0.99915573   -5.0433509   0.28135239   -3.2633185 -0.007155137 
   37100   0.98632536   -5.0709554   0.28071591   -3.3108042 -0.015598046 
   37200   0.98815936   -5.0721225   0.27737578   -3.3125606 -0.034239987 
   37300   0.98632467   -5.0362545   0.27995745   -3.2768629 -0.019628489 
   37400    0.9808183    -5.047781   0.28169005    -3.294916 -0.018567674 
   37500   0.97709313   -5.0647878   0.27990713   -3.3192933 -0.039585593 
   37600    0.9927441   -5.0257616   0.28144791   -3.2552507 -0.037492674 
   37700   0.99428342   -5.0356939   0.27741994   -3.2669021 -0.017069644 
   37800   0.98615995   -5.0613311   0.28363557   -3.2985085 0.0079112836 
   37900    0.9939764    -5.034126   0.27748291   -3.2657317 -0.00073507411 
   38000   0.99567133   -5.1022603   0.28122685   -3.3275798  -0.06684447 
   38100   0.99915094   -5.0096838   0.27940193    -3.231609 -0.0038195044 
   38200   0.98644404   -5.0957353   0.27757963   -3.3385425 -0.037083112 
   38300   0.99503261   -5.0239304   0.27669875   -3.2547361 -0.0097778719 
   38400   0.99256436   -5.0705557   0.28222806   -3.2995343  -0.05052428 
   38500   0.99126667   -5.0478846   0.27769747   -3.2833403 -0.031847964 
   38600   0.98807287   -5.0642019   0.27849817   -3.3036474 -0.050656879 
   38700   0.99133799   -5.0633584   0.27804592   -3.2983586 -0.039327705 
   38800   0.99073236   -5.0675836   0.27581795   -3.3057202 -0.015705432 
   38900   0.98451436   -5.0649503   0.27539554    -3.312836 -0.018930423 
   39000   0.99326173   -5.0857671    0.2819183   -3.3140094 -0.017117229 
   39100   0.99432967   -5.0718164   0.28345537   -3.2969198 -0.020158408 
   39200    0.9918368   -5.0532409   0.28747742   -3.2780614 -0.046532719 
   39300   0.99152775   -5.0892473   0.28051951   -3.3214893 -0.044197551 
   39400   0.99303247   -5.0488437   0.28335409   -3.2759941 -0.042198307 
   39500   0.98694214   -5.0474267   0.28150017   -3.2855662 -0.00093735613 
   39600   0.99580627   -5.0865797    0.2870249   -3.3058987  0.021695513 
   39700     0.991382   -5.0943074   0.28718763   -3.3200999 -0.047895309 
   39800   0.97912706    -5.024305   0.27930754   -3.2763594 -0.028517433 
   39900   0.98798153   -5.0596285   0.28462475   -3.2930844 -0.0088040498 
   40000   0.99232961   -5.0474906   0.27844115   -3.2806082  -0.01662303 
   40100   0.98975228   -5.0591527   0.28121235    -3.293365 -0.0084305115 
   40200     0.991167   -5.0683379   0.27898134   -3.3026592   0.01846552 
   40300   0.99151558   -5.0667434   0.28360391   -3.2959193 -0.041522562 
   40400   0.99491935   -5.0655771    0.2819657   -3.2912857  0.011385604 
   40500   0.99247875   -5.0361209   0.27900854   -3.2684474 -0.020214193 
   40600   0.98393781   -5.0489662   0.27906828   -3.2940439 -0.037321872 
   40700   0.98345556    -5.038453   0.28318755   -3.2801348 -0.0077577435 
   40800   0.99534115   -5.0900012   0.27749648   -3.3195463 -0.036653012 
   40900   0.99331419   -5.0356981   0.28421251   -3.2615676 0.00049300524 
   41000   0.99978457   -5.0666305   0.27284716     -3.29416 -0.015836326 
   41100   0.99101603   -5.0304862   0.28131017   -3.2627051   0.02190043 
   41200   0.98637135   -5.0756027   0.27695078   -3.3191477 -0.038094516 
   41300    0.9990716   -5.0719511   0.28333839   -3.2900588 -0.0028130449 
   41400   0.98996682   -5.0327918   0.28042878   -3.2674658 -0.067509745 
   41500   0.98823959   -5.0540065   0.28256078   -3.2891393 -0.023397787 
   41600   0.98839694   -5.0966077   0.27870502   -3.3353602 -0.022736657 
   41700   0.98260779    -5.037213   0.28105063   -3.2823034 -0.0034818362 
   41800   0.98960222   -5.0244012   0.27851035   -3.2615405 -0.019422102 
   41900   0.99035064   -5.0395616   0.27214887   -3.2819399  -0.02008132 
   42000   0.99423939   -5.0661642   0.28244419   -3.2924142 -0.019035325 
   42100   0.98644317   -5.0593249    0.2807211   -3.2989919 -0.041848038 
   42200   0.99183663   -5.0606363   0.28049772   -3.2924367 -0.051639077 
   42300   0.98635677    -5.084106   0.27855257   -3.3260711  -0.03250867 
   42400   0.99086886   -5.0453932   0.27850943   -3.2806336 -0.0046432614 
   42500   0.99314078   -5.0582712    0.2741652    -3.294448 -0.049544169 
   42600   0.99360071   -5.0291008   0.27548658   -3.2632663   0.02189776 
   42700   0.99151048   -5.0367532   0.28195537   -3.2675852 -0.012914594 
   42800   0.98595071   -5.0785202   0.27801804   -3.3216289 -0.046455246 
   42900    1.0011422   -5.0556126   0.27815703   -3.2757959 -0.056421189 
   43000   0.98450213   -5.0944682   0.27831837   -3.3394494 -0.044920313 
   43100   0.99149451   -5.0784958    0.2746811   -3.3166261 -0.038512178 
   43200   0.99455147   -5.0653613   0.28338203   -3.2902053 -0.036206699 
   43300   0.98063566   -5.0323959    0.2798847   -3.2816102 -0.011257603 
   43400   0.99605748   -5.0550168   0.27635793    -3.284626  -0.01570125 
   43500   0.98338499   -5.0370658   0.28123295   -3.2808081 -0.0027126138 
   43600   0.98972448   -5.0563062   0.27240284   -3.2993697  -0.02449598 
   43700   0.99427179   -5.0189062   0.27821508   -3.2493367 -0.018414534 
   43800   0.98459048   -5.0587417   0.27964105   -3.3022676 -0.0078888792 
   43900   0.98857866   -5.0036193   0.28601236   -3.2347919 -0.011933471 
   44000   0.98954622   -5.1140612   0.28226355   -3.3475313 -0.039814936 
   44100   0.99151535   -5.0438181   0.27550494   -3.2810932 -0.014320383 
   44200    0.9910989   -5.0704807    0.2794558   -3.3044296 -0.036218138 
   44300   0.98634921   -5.0113554   0.28151259   -3.2503719 -0.0065260697 
   44400   0.98744917   -5.0492071   0.27885598   -3.2892302 -0.010064409 
   44500   0.98950443   -5.0588814   0.27933519   -3.2953425 -0.055696686 
   44600    0.9828501   -5.0544096   0.28407763   -3.2961095 -0.015973608 
   44700   0.98682865   -5.0637886   0.27245694   -3.3111416  -0.04891662 
   44800   0.99403432   -5.1186248   0.28117474   -3.3464519 -0.033834666 
   44900   0.98519663   -5.0478141   0.28326295    -3.286809 -0.010176749 
   45000   0.97758756   -5.0457519   0.27694109   -3.3024818 -0.0089314169 
   45100   0.99416151   -5.0785496   0.27248466   -3.3148759 -0.066319872 
   45200    1.0010009   -5.0555294   0.28071406   -3.2733676 -0.021134539 
   45300   0.99455022   -5.0625734   0.27601193   -3.2947894 0.0040614226 
   45400   0.99284302   -5.0340663   0.27971205   -3.2651429 0.0031402436 
   45500   0.98127817   -5.0837789   0.27940617   -3.3325081 -0.039047457 
   45600   0.98116095   -5.0573082   0.28127707   -3.3043423  -0.05822784 
   45700   0.99338535   -5.0765259   0.28247778   -3.3040233 -0.0036624004 
   45800   0.99463725   -5.0440794   0.27485969   -3.2773171 -0.014701329 
   45900   0.99809981   -5.0897278   0.28283255    -3.309799 -0.031672305 
   46000    0.9916349   -5.0495817   0.28300409   -3.2791783 -0.032156282 
   46100   0.99295484   -5.0617347    0.2815139   -3.2908418  -0.01809393 
   46200   0.99197732   -5.0522998   0.27821804   -3.2861689   0.01591677 
   46300   0.99199357   -5.0866153   0.28153784   -3.3171403 -0.028542192 
   46400   0.99279291   -5.0406149   0.28037987   -3.2710988 -0.030332621 
   46500   0.98653657   -5.0408619   0.28245372   -3.2786562 -0.017906736 
   46600   0.99046848   -5.0606615   0.28230601   -3.2927059 -0.028371275 
   46700   0.99494123   -5.0661692   0.27599132   -3.2978193 -0.029288827 
   46800   0.98931641   -5.0809827   0.27715759   -3.3199035 0.00072370675 
   46900   0.99206768   -5.0538076   0.27623622    -3.289523 0.0046763236 
   47000     0.996771    -5.067916   0.27495045   -3.2978624 -0.011977205 
   47100   0.98940371   -5.0807691   0.27933408   -3.3173824 -0.046701012 
   47200   0.99703105   -5.0308057   0.27421081   -3.2611017 -0.008720344 
   47300   0.98711671   -5.0611253   0.27581994   -3.3046831  0.010453169 
   47400    0.9897248   -5.0569018   0.27938134   -3.2929862 -0.050081968 
   47500    0.9937129   -5.0551443   0.27787422    -3.286754 -0.0091580483 
   47600   0.99528156   -5.0595132   0.27354253   -3.2931016 -0.050190324 
   47700   0.98717546   -5.0899196   0.27544222   -3.3337671 -0.033741313 
   47800    0.9917763   -5.0316834   0.27670423   -3.2673678 0.0023695881 
   47900   0.99400896   -5.0200158   0.27956947   -3.2494862  0.017390788 
   48000   0.98462664   -5.0456357   0.27556723   -3.2931813 -0.022523106 
   48100   0.98371192   -5.0587313   0.28404543   -3.2991707 -0.034923618 
   48200   0.99135775   -5.0381419   0.28183153   -3.2693269 -0.013941179 
   48300   0.99605648   -5.0351635   0.27412889   -3.2670032 -0.0080038647 
   48400   0.99426788   -5.0103555   0.27905399   -3.2399529  0.020992957 
   48500   0.98763652   -5.0352648   0.28215391    -3.271709 -0.0086170752 
   48600   0.99226958   -5.0504747   0.27990184   -3.2822217 -0.031373625 
   48700   0.99266416   -5.0422111   0.28432636   -3.2689416 -0.012892498 
   48800   0.99399316   -5.0796988   0.27850974   -3.3102526 -0.042691852 
   48900   0.99790648   -5.0715462   0.27598998     -3.29875 -0.0056602621 
   49000   0.99454873   -5.0206368   0.27595778   -3.2529092 0.0080154133 
   49100   0.98410032   -5.0508547   0.27739388    -3.297363 -0.023143473 
   49200    1.0002316   -5.0471507   0.28070259   -3.2661543 -0.031047781 
   49300   0.99050016   -5.0738244   0.28421438   -3.3039128 -0.040439539 
   49400    0.9922188   -5.0638689   0.28186355   -3.2937303 -0.022240214 
   49500   0.99352752   -5.0510531   0.27357317   -3.2872419 -0.032619539 
   49600   0.98882249   -5.0722257   0.28265392   -3.3063911 -0.023837341 
   49700   0.99907387   -5.0381449   0.27575667    -3.263831 -0.003141811 
   49800    0.9837293    -5.073962   0.28281623   -3.3156045 -0.061392936 
   49900   0.99381044    -5.062933   0.28487374   -3.2873968 -0.0041468325 
   50000   0.98794858   -5.0688617   0.28112001   -3.3058717 -0.011136338 
   50100   0.99026001   -5.0955293   0.28373707   -3.3264553 0.0097982314 
   50200   0.98201426   -5.0433145   0.27774292   -3.2926028  -0.03406296 
   50300   0.99480132   -5.0651983   0.27905463    -3.293995 -0.032696484 
   50400   0.99453397   -5.0644658   0.28060954   -3.2921086 0.00023018006 
   50500   0.99465304   -5.0611487      0.27851   -3.2907124 -0.024446766 
   50600   0.98572002    -5.068469    0.2776591   -3.3122827 -0.048712727 
   50700   0.98581396   -5.0614404   0.27648782   -3.3062845 -0.026619967 
   50800   0.99068186   -5.0448413   0.27957031   -3.2793013 -0.041019117 
   50900   0.98736721    -5.071478   0.27652162   -3.3139584 -0.025099984 
   51000   0.99973371   -5.0370908   0.27302841   -3.2645154 0.0029975846 
   51100   0.99314397   -5.0946752    0.2807171   -3.3242953 -0.042176877 
   51200   0.99453299   -5.0680873   0.28104152   -3.2952995 -0.012406831 
   51300   0.99185839   -5.0845951   0.27103878   -3.3258219 -0.060125502 
   51400   0.99500086   -4.9958621   0.28120176   -3.2222124  0.012642424 
   51500    0.9915141   -5.1068239   0.28191641   -3.3376895 -0.084043753 
   51600   0.99257398   -5.0431256   0.27681928   -3.2774985 -0.022026549 
   51700   0.99393485    -5.048797   0.27846003   -3.2794879 -0.0086509292 
   51800   0.98713755   -5.0864455   0.27973515    -3.326057 -0.024060275 
   51900   0.99304546   -5.0743553   0.27825601   -3.3065843 -0.0066179709 
   52000   0.98533735   -5.0199126   0.27898817   -3.2629712 -0.039189157 
   52100   0.98754726   -5.0512302   0.27893419    -3.291028 -0.023122762 
   52200    1.0011247   -5.0268227   0.27749203   -3.2476972 -0.010695161 
   52300   0.99320943   -5.0594271   0.28064127   -3.2890249 -0.048338321 
   52400   0.98348824   -5.0418479   0.28245102   -3.2842172 -0.0014363167 
   52500   0.99099177   -5.0518083   0.28490683   -3.2804669 -0.0080214819 
   52600   0.98587501   -5.0957682   0.27889054   -3.3381179 -0.038571492 
   52700   0.99518461   -5.0287564   0.28478136   -3.2512514 -0.0059178901 
   52800   0.98723559   -5.0749589   0.27698544    -3.317173 -0.043390378 
   52900    0.9824068   -5.0631661   0.28378316   -3.3058254 -0.017124386 
   53000   0.99691509   -5.0805415   0.28172516   -3.3034971 -0.032292316 
   53100   0.99141571   -5.0475831   0.27971567    -3.280797 -0.014052374 
   53200   0.98356486   -5.0522842   0.28267655    -3.294313 -0.062866894 
   53300   0.99151912   -5.0635736   0.28052044   -3.2958276 -0.031260485 
   53400   0.98779852   -5.0704241   0.27996584   -3.3088134 -0.013765822 
   53500   0.99482808   -5.0412352   0.28102812   -3.2680182 -0.0077292259 
   53600   0.99018486   -5.0471897   0.28117505   -3.2807904 -0.0093782859 
   53700   0.98645321   -5.0881002   0.27567247   -3.3328007 -0.053474993 
   53800   0.99396716   -5.0391296   0.27766647   -3.2705657 -0.044834918 
   53900    0.9938823   -5.0668193   0.27787075   -3.2981783 -0.034028374 
   54000   0.99240074   -5.0405971   0.28250158   -3.2695476 -0.0033592942 
   54100    0.9915773   -5.1013231   0.28617822    -3.327832 -0.060116105 
   54200   0.98428091   -5.0037237   0.27922423   -3.2481308  0.014374546 
   54300   0.99369275   -5.0721875   0.28377045   -3.2979311 -0.034139163 
   54400   0.98256414   -5.0145363   0.28046172    -3.260281  -0.01190186 
   54500   0.98810584   -5.0716955   0.27923433   -3.3103553 -0.032244202 
   54600   0.98455802    -5.035541   0.28263034   -3.2761263 -0.013255592 
   54700   0.98570038   -5.0256969   0.28174909     -3.26545 -0.0036342651 
   54800    1.0010807    -5.077964   0.27407038   -3.3023261 -0.044467484 
   54900   0.99059399   -5.0032287    0.2790914   -3.2382994 -0.016073198 
   55000    0.9983958   -5.1063111   0.27864816   -3.3301227 -0.058865417 
   55100   0.99673756   -5.0663992   0.28190596   -3.2894403 -0.0037305186 
   55200   0.99031348   -5.0659109   0.28344323   -3.2970505 -0.0084186403 
   55300   0.98815925    -5.068807   0.27943153   -3.3071895  -0.02609974 
   55400   0.98917075   -5.1042681   0.28093049   -3.3396345 -0.029328928 
   55500    0.9934263   -5.0980366   0.27989693   -3.3280534 -0.063383268 
   55600   0.98448796   -5.0419052   0.28114086   -3.2840851 -0.024147424 
   55700   0.98949332    -5.062475    0.2799666   -3.2983214 0.0066346049 
   55800    0.9947919   -5.0416017   0.27611785   -3.2733493 -0.0060281458 
   55900   0.99057185   -5.0173468   0.28332037   -3.2482217  -0.01655438 
   56000   0.98659943   -5.0418855   0.27697371   -3.2850655 -0.039033007 
   56100   0.99642937   -5.0173771   0.28246213   -3.2403243  0.030295013 
   56200   0.98816632   -5.1071754    0.2829292   -3.3420497 -0.031365097 
   56300   0.98867849   -5.0504354    0.2793302   -3.2881404 0.0033292866 
   56400   0.98694259   -5.1138249   0.27677635   -3.3566875 -0.046900923 
   56500   0.99196863   -5.0374284   0.27715976   -3.2723689  0.016937493 
   56600    1.0001554   -5.1035378   0.27736596   -3.3259923 -0.063574788 
   56700   0.98180556   -5.0312379   0.28124451   -3.2773377 -0.020548836 
   56800    0.9850155   -5.0749164   0.28409788    -3.313348 0.0013029277 
   56900    0.9847477   -5.0760205   0.28286009   -3.3160916 -0.064300002 
   57000   0.98068905    -5.026323    0.2829976   -3.2723443 -0.0064111912 
   57100   0.98715865   -5.0624144   0.28206341   -3.2996659  0.001407845 
   57200    0.9892854   -5.0409709   0.28311784    -3.273978 -0.041342786 
   57300   0.99504673   -5.0523385   0.27926667    -3.280555 -0.036365398 
   57400   0.97527019   -5.0627026   0.28009163    -3.319758 -0.0016350894 
   57500   0.98328349   -5.0603243   0.27406825   -3.3113835  -0.04125116 
   57600   0.99015113   -5.0646028   0.27746669   -3.3019624 -0.031800166 
   57700   0.99914429    -5.071401   0.27749426   -3.2952438 -0.022570621 
   57800   0.98523359   -5.0945894   0.27907941   -3.3377124 -0.055100977 
   57900   0.99028724   -4.9855503   0.28138506   -3.2187874  0.020987424 
   58000   0.98388001   -5.1000772   0.28044011   -3.3438698 -0.050569374 
   58100   0.99781311   -5.0577584   0.27949245   -3.2815997  0.010914488 
   58200   0.98906231   -5.0575986   0.27877788   -3.2952802 -0.040650541 
   58300   0.98998358   -5.0658956   0.28698013   -3.2939932 -0.019538018 
   58400   0.99567133   -5.0676397   0.27678656   -3.2973995 -0.00070502165 
   58500   0.99037787    -5.036787   0.27506248   -3.2762107 -0.032697595 
   58600   0.98866031    -5.093567   0.28481695   -3.3258126 -0.055571318 
   58700   0.98531281   -5.0348428   0.27782054   -3.2791059 -0.0010120121 
   58800   0.98232177   -5.0699169    0.2711611   -3.3253258 -0.060051142 
   58900   0.99177244    -5.036581   0.27367836   -3.2752971 -0.015133984 
   59000   0.98944471   -5.1073605   0.27729381   -3.3459526 -0.040161683 
   59100   0.98593689   -5.0287866   0.28394304   -3.2659911 -0.0078724617 
   59200   0.98829174     -5.09559    0.2730867   -3.3401187 -0.024461733 
   59300   0.98459123   -5.0410541   0.27362761   -3.2905924 0.0043040387 
   59400   0.99276431   -5.0433906   0.27734721   -3.2769501 -0.0079688856 
   59500   0.98670799   -5.0618476   0.28361591   -3.2982225 -0.030386029 
   59600   0.98417937    -5.046742   0.27610407   -3.2944216 -0.040027246 
   59700   0.98563645    -5.084739   0.27585094   -3.3304862 -0.047537458 
   59800   0.98305495   -5.0291877    0.2837441   -3.2709138 -0.019413351 
   59900    0.9900703   -5.0663515   0.28462731   -3.2966717 -0.035585107 
   60000   0.99166192   -5.0394484   0.28018697   -3.2718217 0.0014347638 
   60100   0.99049724   -5.0583016   0.28341413   -3.2891947 -0.048391975 
   60200   0.99052005   -5.0552129   0.28076774   -3.2887182 -0.025086852 
   60300   0.99721828   -5.0606375   0.27555996   -3.2893035   -0.0389435 
   60400   0.98512939   -5.0387728   0.27498455   -3.2861469 0.0096238011 
   60500   0.98924417   -5.0510011   0.27793546   -3.2892524 -0.021471554 
   60600   0.98500126   -5.0935853   0.28013137   -3.3360048 -0.042256889 
   60700   0.99372673   -5.0157976   0.27970216   -3.2455585 -0.0024631015 
   60800   0.98729702   -5.1036495   0.27813395    -3.344623 -0.042202178 
   60900   0.99614464   -5.0399156   0.27942733   -3.2663247 0.00042446156 
   61000   0.99307932   -5.0537538    0.2826109   -3.2815771 -0.027370723 
   61100   0.99335289   -5.0219907   0.27667518   -3.2553394 -0.023823026 
   61200   0.99398937   -5.0554886   0.27925888   -3.2852989 -0.039888071 
   61300   0.99108494   -5.0569682   0.27786106   -3.2925328 -0.016053525 
   61400   0.99463532   -5.0763984   0.28793437   -3.2965643 -0.024061411 
   61500   0.99386189    -5.038886   0.28309977   -3.2650467 -0.014005138 
   61600   0.98482759   -5.0422328   0.27958814   -3.2854561 -0.031136704 
   61700   0.98922172   -5.0495154   0.28165504   -3.2840808  0.015081534 
   61800   0.98275827   -5.0446846    0.2765775   -3.2940224 -0.00075078809 
   61900   0.99215714   -5.0594703   0.28055883    -3.290729 -0.052617522 
   62000   0.98963654   -5.0584768   0.28458425   -3.2894907 -0.010465917 
   62100   0.98986808    -5.048049   0.27971705   -3.2835829 -0.019788253 
   62200   0.99441436   -5.0730415    0.2709962    -3.310477 -0.0095642773 
   62300   0.97864793   -5.0632624   0.28246156   -3.3128814 -0.049274156 
   62400   0.98228583   -5.0457641   0.27758614   -3.2948018 -0.025569899 
   62500   0.97752322   -5.0276163   0.28261974   -3.2787641 -0.025364195 
   62600   0.99658936   -5.0661575   0.28015271   -3.2911741 -0.026700892 
   62700   0.99399432   -5.0992575   0.28322546   -3.3250938 -0.048817097 
   62800   0.99551402   -5.0703378   0.27987008     -3.29725 -0.019574677 
   62900   0.98869576   -5.0794211   0.27374696   -3.3226835  -0.02924784 
   63000   0.98986543   -5.0638026   0.27827107   -3.3007864 -0.0064513188 
   63100   0.98696557   -5.0696164   0.27576852   -3.3134524 -0.037849761 
   63200   0.98643043   -5.0601439   0.27784596   -3.3027052 -0.031901312 
   63300   0.99910487   -5.0462894   0.27746192   -3.2702237 -0.018595377 
   63400   0.98733749     -5.07797   0.27745449   -3.3195622 -0.017157498 
   63500   0.99819102   -5.0613599   0.27864731   -3.2854795 -0.014319681 
   63600   0.99202642   -5.0406765   0.28092362   -3.2717664 -0.043286826 
   63700   0.98280431   -5.0255999   0.27851468   -3.2729314 -0.037727978 
   63800   0.98843255   -5.0690851    0.2754139   -3.3110753 -0.049160854 
   63900    0.9898643   -5.0494997   0.27992044   -3.2848359 -0.052592981 
   64000   0.99303131   -5.0642519    0.2795066   -3.2952516  -0.03512214 
   64100   0.99538519   -5.0544329   0.27816462   -3.2832438 -0.024041688 
   64200   0.99202419   -5.0835174   0.28775998   -3.3077742 -0.048528966 
   64300   0.98925704   -5.0026341   0.27930997   -3.2394915 -0.039482699 
   64400   0.99119009   -5.0731407   0.27949539   -3.3069132 0.0084927865 
   64500   0.99238542   -5.0471281   0.27641398   -3.2821891 -0.0077815801 
   64600   0.98411811   -5.0738763   0.27980055   -3.3179513  -0.06311091 
   64700   0.98609879   -5.0511592   0.27733411   -3.2947297 -0.059758955 
   64800   0.99378569   -4.9992513   0.28358283   -3.2250432  0.027934288 
   64900   0.98245513   -5.0504606   0.28434583   -3.2924847 -0.027227368 
   65000   0.99038935   -5.0176372   0.28256197   -3.2495443 -0.017262368 
   65100   0.99363731   -5.0167764   0.27877657   -3.2475971 -0.0064302674 
   65200   0.98802041   -5.0623724   0.28020349   -3.3001912  -0.02672265 
   65300    0.9920675   -5.0821525   0.28428562   -3.3098188  -0.01766232 
   65400   0.99728458   -5.0752204   0.27850828   -3.3008387 -0.033925642 
   65500   0.98900317   -5.0544034   0.27842819   -3.2925234 -0.038131322 
   65600   0.99886042   -5.0085431    0.2815094   -3.2287966 -0.009167272 
   65700    0.9908507   -5.0606843   0.28364832    -3.290813 -0.039744633 
   65800   0.98295056   -5.0456735   0.27800154   -3.2932988 -0.032234278 
   65900    0.9905514   -5.0419044   0.28020771   -3.2759226 -0.015630162 
   66000   0.99750164   -5.0914603   0.27880471   -3.3164566  -0.06494036 
   66100   0.99239995   -5.0361412   0.27550356   -3.2720909 -0.020602056 
   66200   0.98999244   -5.0593221    0.2807863   -3.2936002 0.0036400809 
   66300    0.9858577   -5.0512349   0.28511527   -3.2873859  -0.03244074 
   66400   0.99354073   -5.0528194   0.28167467   -3.2808869  0.021627521 
   66500   0.98890577   -5.0332287   0.28157941   -3.2683436 -0.024963261 
   66600   0.99026593   -5.0644288   0.28109186   -3.2979911 -0.034287884 
   66700   0.99043928   -5.0776539   0.28079743   -3.3112506 -0.038159055 
   66800    0.9889149   -5.0631775   0.28404151   -3.2958166 -0.037233864 
   66900   0.99481147    -5.045639   0.28048378   -3.2729913 -0.044573226 
   67000   0.99376061   -5.0561188   0.28190475   -3.2836264 -0.023030338 
   67100    0.9934205   -5.0589564   0.27589059   -3.2929883 -0.0072455651 
   67200   0.98677276   -5.0589721   0.28132847   -3.2975373 -0.044858128 
   67300   0.98663812   -5.0090713   0.28008806   -3.2490789 -0.033464567 
   67400   0.98946819   -5.0703957   0.27875898   -3.3074874 -0.042295029 
   67500   0.99098058   -5.0216171   0.28126773   -3.2539316   0.03226335 
   67600   0.97772222   -5.0733694   0.27719245    -3.329646 -0.036488773 
   67700   0.98896103   -5.0429716    0.2814451   -3.2781379   0.01042596 
   67800   0.97885992   -5.0472398   0.28008475   -3.2989176 -0.016529303 
   67900   0.98369801    -5.073811   0.27757595   -3.3207408 -0.026942748 
   68000   0.99631628   -5.0379137   0.27702796   -3.2664647 -0.0099768388 
   68100    0.9860956   -5.0430098   0.28252521   -3.2813941 -0.031929909 
   68200   0.99074932   -5.1231819   0.28257423   -3.3545367 -0.055748999 
   68300   0.99226002   -5.0370299   0.28251065   -3.2661824 -0.027362037 
   68400   0.99312211   -5.0500857   0.28090412   -3.2795516 -0.063374764 
   68500   0.99044901   -5.0476112    0.2766281   -3.2853627 -0.018913681 
   68600   0.98960643   -5.0602336   0.27971679   -3.2961602 -0.034406286 
   68700   0.99369694   -5.0268622   0.28048846   -3.2558816 -0.028284511 
   68800   0.99235062   -5.0440923    0.2758381   -3.2797814 -0.021446703 
   68900   0.98886354   -5.0803103   0.28265597    -3.314412 -0.028505317 
   69000   0.98753477    -5.022504   0.28379436   -3.2574604 -0.012929025 
   69100    0.9870446    -5.080009   0.28128305   -3.3182119 -0.039468362 
   69200    0.9792635   -5.0568419   0.27900703   -3.3089921 -0.021838387 
   69300   0.98829311   -5.0601049   0.27937843   -3.2983398 -0.026056627 
   69400   0.98451754   -5.0834529    0.2765548   -3.3301745 -0.012733993 
   69500   0.98353344   -5.0439026   0.27755402   -3.2911012 -0.022362162 
   69600   0.99033351   -5.0620584   0.28635482   -3.2902564 -0.014542871 
   69700   0.99230229   -5.0597346   0.28171435     -3.28962 -0.016005667 
   69800   0.98776793   -5.0439029   0.28402642   -3.2782775  -0.01586635 
   69900   0.98852919    -5.070905   0.28297843   -3.3051857 -0.044026502 
   70000    0.9910497   -5.0212505   0.27193212   -3.2627969 -0.026888829 
   70100   0.99168018   -5.0978533   0.28263979   -3.3277464 -0.039386657 
   70200   0.99635009   -5.0602791   0.27889188   -3.2869154 -0.0088166233 
   70300   0.98353961   -5.0636921   0.28093592   -3.3074995 -0.051667137 
   70400    0.9936559   -5.0448619   0.28097034    -3.273461 0.0095281302 
   70500    1.0024566   -5.0701033   0.27890148   -3.2875705 -0.014251489 
   70600   0.98714828   -5.0720118   0.26927362   -3.3220686 -0.0072103261 
   70700   0.99184878   -5.0219262   0.28059648   -3.2536097  0.021612262 
   70800    0.9947737   -5.0582483   0.28469225   -3.2814488 -0.034671727 
   70900     0.985325   -5.0409703   0.27718421   -3.2858514 -0.012375907 
   71000   0.98573348   -5.0322873   0.28292897   -3.2708109  -0.02074098 
   71100   0.98021516    -5.094082   0.28101308   -3.3427987  -0.05947666 
   71200   0.99017425   -5.0298665    0.2801319   -3.2645263 0.0042638848 
   71300   0.98693988   -5.0748258   0.28581413   -3.3086547 -0.030698527 
   71400   0.98608468   -5.0200332   0.27307408   -3.2678849   -0.0173643 
   71500   0.99408306   -5.1027684   0.28149702      -3.3302 -0.027354264 
   71600   0.98927527   -5.0401524   0.27905264   -3.2772399 -0.0076988857 
   71700   0.99929394   -5.0609444   0.27994851   -3.2821085 0.0019630461 
   71800   0.99179866   -5.0713021   0.28271502   -3.3009422 -0.031335177 
   71900   0.99583566   -5.0482223   0.27947357   -3.2750486 -0.018313884 
   72000   0.99028579   -5.0335114   0.27819658   -3.2699392 -0.047558105 
   72100   0.98515263   -5.0595425   0.27668461   -3.3051818 -0.040244119 
   72200    1.0016192   -5.0571834   0.28079163   -3.2740166 -0.013659958 
   72300   0.98635846   -5.0261143    0.2785816   -3.2680479 -0.011331091 
   72400   0.98207838   -5.0591327   0.27600443   -3.3100633 -0.028505385 
   72500   0.98525673    -5.073771   0.27767353   -3.3182651 -0.049920118 
   72600   0.99732711   -5.0354148   0.27637212   -3.2631055 -0.0028330909 
   72700   0.99087023   -5.0354493   0.28064319   -3.2685539 -0.035211308 
   72800    0.9966699    -5.000509   0.27582987   -3.2297277 -0.017885681 
   72900   0.98728708   -5.0532499   0.27986636   -3.2925058 -0.029618755 
   73000   0.98705644   -5.0473091   0.27432128    -3.292456 -0.045262887 
   73100   0.97614961   -5.0998077   0.27265292   -3.3629826 -0.048975979 
   73200   0.98691555    -5.033844    0.2759792   -3.2775444 -0.023160332 
   73300   0.98044313   -5.0755611   0.27803161   -3.3269173 -0.046373262 
   73400   0.98266122   -5.0542818   0.28223498   -3.2981077  -0.03530217 
   73500    1.0033305   -5.0409279   0.27999765   -3.2559882 -0.023027217 
   73600    0.9984378   -5.0690657   0.28641881   -3.2850436 -0.054038481 
   73700   0.98936927   -5.0673041   0.27854536   -3.3047578 -0.0064932176 
   73800     0.989733   -5.0328477   0.27812574   -3.2701755 0.0049006722 
   73900   0.99169303   -5.0894852   0.27789054   -3.3241082 -0.073403362 
   74000   0.99704862   -5.0562787   0.28458847   -3.2761707 -0.038008155 
   74100   0.99225192   -5.0075249   0.28477216    -3.234428 -0.00025211546 
   74200   0.98417115   -5.0353354   0.27952747   -3.2796039 -0.015218784 
   74300   0.98464687   -5.0609494   0.28228858   -3.3017433 -0.036391747 
   74400   0.99757504   -5.0649159   0.27850858   -3.2900982  -0.03489291 
   74500   0.98426956   -5.0828164   0.27898824   -3.3274765 -0.039094045 
   74600    0.9945859   -5.0450779   0.28420425   -3.2690481 -0.0016336473 
   74700   0.98533141   -5.0898817   0.28445204   -3.3274854 -0.043483174 
   74800   0.99362317   -5.0517329   0.27356106   -3.2877903 -0.0051656207 
   74900   0.99199117   -5.0572844   0.29005723   -3.2792936 -0.043389439 
   75000   0.99597558   -5.0280864   0.27384173   -3.2603347 -0.019354527 
   75100   0.99174273   -5.0525722   0.28078947   -3.2842218 -0.042967013 
   75200   0.99028104   -5.0685635   0.27950668   -3.3036883 -0.048328135 
   75300   0.99075195   -5.0326042   0.28057324   -3.2659561  0.011781604 
   75400   0.99732828    -5.068003   0.27683457   -3.2952294 -0.034448864 
   75500   0.99311027   -5.0501303   0.28318666   -3.2773315 -0.0096627805 
   75600     0.989763   -5.0532177   0.27962116   -3.2890051 -0.011045069 
   75700   0.99050243   -5.0639253   0.28386102   -3.2943637 -0.047832805 
   75800   0.98830903   -5.0700809   0.28349082   -3.3041794 -0.022086928 
   75900   0.97880654   -5.0985396   0.27962357   -3.3507587 -0.053245411 
   76000   0.99490119   -5.0113844   0.28210038   -3.2369855 -0.018486925 
   76100   0.98955667   -5.0935932   0.28151357   -3.3277976 -0.037492216 
   76200   0.99277523    -5.005311   0.28150383   -3.2346975 -0.032023888 
   76300   0.98337971   -5.0586632    0.2793242   -3.3043221 -0.055872373 
   76400   0.98709534   -5.0508459   0.28477128   -3.2854845 -0.021865168 
   76500   0.99398118   -5.0513126   0.28092581   -3.2794683 -0.047482706 
   76600   0.99349793   -5.0507616    0.2771277   -3.2834402 -0.0050483359 
   76700   0.99594453   -5.0153022   0.28789481    -3.233544  0.018758022 
   76800   0.98120764   -5.0816774   0.28023872   -3.3296798  -0.02016962 
   76900   0.99550721   -5.0423805   0.27741826   -3.2717548 -0.014390953 
   77000   0.99688537   -5.1262372   0.28785074   -3.3431118 -0.023795561 
   77100   0.98819964   -5.0035247   0.27727483   -3.2440034  0.019770828 
   77200   0.98809124   -5.0509475   0.27983435   -3.2890292 -0.032940629 
   77300   0.99166069   -4.9966472    0.2814613    -3.227748 -0.0075503152 
   77400    1.0035253   -5.0672571   0.28624197   -3.2757809  -0.04280421 
   77500   0.99450266   -5.0673962   0.27575496   -3.2999405 -0.0044187999 
   77600   0.98581373   -4.9950928     0.276582    -3.239843 0.0081117092 
   77700   0.98688654   -5.0654468   0.28086761   -3.3043022  -0.04854158 
   77800   0.98067664   -5.0555507   0.27827303   -3.3063153 -0.018307274 
   77900   0.99358229   -5.0742769   0.28244433   -3.3015124 -0.046665497 
   78000   0.99479699   -5.0510593   0.28226189   -3.2766553  0.021602466 
   78100   0.99066435   -5.0164104   0.28014075   -3.2503262  0.020524722 
   78200   0.99210064   -5.0660413   0.27735737   -3.3005861 -0.040584663 
   78300   0.99266208    -5.043898   0.28504028   -3.2699177 0.0087238307 
   78400   0.98790668   -5.0691907   0.28411217   -3.3032715 -0.030931586 
   78500   0.98434814   -5.0330739   0.28359171   -3.2730127 -0.027399262 
   78600   0.99719796   -5.0492138   0.28064245   -3.2728278 -0.039552238 
   78700   0.98351034   -5.0385336   0.28109023   -3.2822306  -0.01159017 
   78800   0.98478217   -5.0909543   0.27673717   -3.3370966 -0.065539906 
   78900   0.98627341   -5.0583567   0.27911683   -3.2998826 -0.025954805 
   79000   0.99445694   -5.0721507   0.28292788   -3.2975906 -0.039280321 
   79100   0.99184256   -5.0669087   0.28223994   -3.2969581 -0.00096445953 
   79200   0.99445085   -5.0617294   0.28254007   -3.2875663 -0.032325189 
   79300    0.9942631   -5.0057595   0.27915118    -3.235267 0.0036481219 
   79400   0.98838657   -5.1072226   0.28081399   -3.3438817 -0.056883368 
   79500   0.98763999   -5.0377409   0.27682406   -3.2795098 0.0030391911 
   79600   0.99218312   -5.0689258   0.28150682   -3.2991975 -0.013184326 
   79700   0.98232177   -5.0827019   0.28296038   -3.3263115 -0.016193606 
   79800   0.98481207   -5.0253643   0.28137918   -3.2668198 -0.026289317 
   79900   0.99572061   -5.0720603   0.27835203   -3.3001807 -0.034820592 
   80000   0.99388042   -5.0421494   0.28276135   -3.2686207 -0.032916272 
   80100   0.99279226   -5.0297216   0.27984273   -3.2607437 -0.029176577 
   80200   0.98780028   -5.0626616   0.27401454   -3.3069996 -0.023362906 
   80300   0.99719737   -5.0661504   0.28538412   -3.2850236 -0.030037715 
   80400   0.98988297   -5.0344252   0.27515812   -3.2744957  0.028034586 
   80500   0.99504911   -5.0801511   0.28469562   -3.3029351  -0.05606859 
   80600   0.99598798   -5.0436451   0.28303681   -3.2666797 0.0054516013 
   80700   0.98880732   -5.0526176   0.28063442   -3.2888251 -0.044316468 
   80800     1.003507   -5.0790858   0.27812284   -3.2957562 -0.046821748 
   80900   0.98941124   -5.0977469   0.27870274   -3.3349804 -0.045708183 
   81000   0.98559365   -5.0372116   0.28388825   -3.2749856  0.011221711 
   81100   0.98565227   -5.0848767   0.27925484   -3.3271962 -0.051365915 
   81200   0.98521027   -5.0450145   0.27622948   -3.2910224 -0.038496834 
   81300   0.98944161   -5.0226364   0.27627195   -3.2622551  0.024442641 
   81400   0.98807494   -5.0560163   0.28209187    -3.291865 -0.046128497 
   81500   0.98320682   -5.0722151   0.27834243   -3.3191151 0.00097930281 
   81600   0.99052277    -5.064918   0.27784953   -3.3013373 -0.019496785 
   81700   0.98167619   -5.0744593   0.27414578   -3.3278518 -0.042206123 
   81800   0.99011259   -5.0420823   0.27993211   -3.2770343 -0.012564645 
   81900   0.98225772   -5.0438094   0.28325324   -3.2872222 -0.042659812 
   82000   0.99267964   -5.0606348    0.2799624   -3.2917061 -0.0020705572 
   82100   0.99128469   -5.0666728   0.27876786    -3.301031 -0.020025569 
   82200   0.99394729   -5.0614612   0.28258407   -3.2880094  -0.03230708 
   82300    0.9815232   -5.0448923   0.27861619   -3.2940438 -0.021458824 
   82400   0.98816591   -5.0646262   0.27596281   -3.3064674  0.025282702 
   82500    0.9940716   -5.0469194   0.28071558   -3.2751497 -0.026657192 
   82600   0.99241675   -5.0255723   0.28235727    -3.254643 -0.0081357862 
   82700   0.99619572   -5.0739599   0.28555039   -3.2941693 -0.0083190361 
   82800   0.99210942   -5.0421936    0.2757199   -3.2783628 -0.022992913 
   82900   0.99547461   -5.0574195   0.27632405   -3.2879368 -0.061241463 
   83000   0.99364935   -5.0397372    0.2816833   -3.2676331 -0.017656502 
   83100   0.98646851   -5.0321976   0.27519068    -3.277357 0.0084013583 
   83200   0.98725332   -5.0671349      0.28019   -3.3061178  -0.03291015 
   83300     0.983082   -5.0200085   0.27918413   -3.2662541  0.037530384 
   83400   0.99150633   -5.0577741   0.27849661   -3.2920711  -0.03639055 
   83500   0.99162216   -5.0705487    0.2754669   -3.3077017 -0.020404611 
   83600   0.99144866   -5.0324197   0.28401968   -3.2612802 0.0010803156 
   83700    0.9997637    -5.076451   0.27791468   -3.2989443 -0.012116847 
   83800   0.98223952   -5.0600246   0.27692536   -3.3097926 -0.037751188 
   83900   0.99262973   -5.0705328   0.28186815   -3.2997733 -0.032882531 
   84000   0.98804863   -5.0456721   0.28300156   -3.2806505 -0.024059976 
   84100   0.99139331   -5.0505585   0.28563184   -3.2778898 -0.013725831 
   84200   0.99983419   -5.0461152   0.28030608   -3.2661114 -0.023940931 
   84300   0.99815301   -5.0623608   0.27751847   -3.2876663  0.017153357 
   84400   0.99379075   -5.0660022   0.27915781   -3.2962115 -0.043751548 
   84500   0.99324287   -5.0437482    0.2815383   -3.2723988 -0.0098043278 
   84600   0.99441787   -5.0729895   0.27362009   -3.3077959 -0.021919022 
   84700   0.98845241   -5.0566828   0.27966241   -3.2943947 -0.017074325 
   84800   0.98904728   -5.0802195   0.27831164   -3.3183899 -0.054426049 
   84900   0.99617705   -5.0241679    0.2760731   -3.2538826 -0.0055346366 
   85000   0.98839031   -5.0823672   0.27189991   -3.3279348 -0.034133505 
   85100   0.98795602   -5.0360758   0.28485416   -3.2693405 -0.056568715 
   85200   0.99150131   -5.0574407   0.27872277    -3.291519 -0.062576061 
   85300   0.98572004   -5.0880366    0.2758635   -3.3336458 -0.035992332 
   85400   0.98939456   -5.0716502   0.27874302   -3.3088684 -0.047627793 
   85500   0.99521986   -5.0290228   0.27843087   -3.2578155 -0.0019450769 
   85600   0.98406815    -5.100499   0.27869922   -3.3457503 -0.021774822 
   85700   0.99109033    -5.072925   0.27858021   -3.3077624 -0.013971232 
   85800   0.99130847   -5.1001575   0.27957394    -3.333674 -0.038680919 
   85900   0.98953803   -5.0425056   0.27654609   -3.2817055    -0.011867 
   86000   0.99007457   -5.0262795   0.28488004   -3.2563406 0.0005328116 
   86100   0.99252748   -5.0955489   0.27611378   -3.3306971 -0.052900087 
   86200   0.98964512   -5.0711434   0.27750694   -3.3092218 -0.021355984 
   86300   0.98874625   -5.0387682   0.28022522   -3.2754765 -0.037957705 
   86400   0.99086402   -5.0498948   0.27732678   -3.2863251  -0.01145767 
   86500     1.003316   -5.0409443   0.27369157   -3.2623325 -0.035641566 
   86600   0.99348507   -5.0682141   0.28149768    -3.296542 0.0071716782 
   86700   0.98910555   -5.0831709   0.28234433   -3.3172213 -0.012790482 
   86800   0.99479705   -5.0486963   0.28270048   -3.2738536 -0.023409276 
   86900   0.98796621   -5.0438483   0.27518042   -3.2867715 -0.016790377 
   87000   0.99492694   -5.1010628   0.28605258   -3.3226731 -0.028066342 
   87100   0.99048409    -5.011725   0.27741796    -3.248634  0.017213278 
   87200   0.98740865   -5.0878827   0.27277829   -3.3340443 -0.032683387 
   87300   0.98761611   -5.0173878   0.28015603   -3.2558606  0.011595571 
   87400   0.98734878   -5.0839726   0.27590671   -3.3270956 -0.039426483 
   87500   0.99605705   -5.0710156   0.28053504   -3.2964484 -0.046436318 
   87600   0.99004552   -5.0465024   0.27803322    -3.283454 -0.0051439944 
   87700   0.98806723   -5.0771924   0.28000543   -3.3151391 -0.024250367 
   87800   0.98384369    -5.029278   0.27453723   -3.2790279  0.017021591 
   87900   0.99297194   -5.0371984   0.28029754   -3.2674962 -0.047154234 
   88000    0.9896585   -5.0796975   0.27983956   -3.3154232 -0.022018336 
   88100   0.99736316   -5.0709569   0.28178415   -3.2931814 -0.022783372 
   88200   0.98697008   -5.0705996   0.27944773   -3.3107496  -0.03194375 
   88300   0.98922331   -5.0564434   0.27988803   -3.2927734 0.0030230002 
   88400   0.98485982   -5.0388072   0.27900249   -3.2825678 -0.012223176 
   88500   0.98902102   -5.0732968   0.27682377   -3.3129945 -0.058685508 
   88600    1.0005174   -5.0678205   0.27679654   -3.2903015 -0.020915761 
   88700   0.99130394    -5.060814   0.27510084   -3.2988103  -0.04105271 
   88800   0.99868439   -5.0286267   0.28003639   -3.2506172  0.002841974 
   88900    0.9900081   -5.0718219   0.28418988   -3.3026729 -0.045250845 
   89000   0.98958432   -5.0588093   0.28295048   -3.2915354 -0.021830509 
   89100   0.98728833   -5.0716533   0.28143348   -3.3093403 -0.055873427 
   89200   0.98620779   -5.0372395   0.27789124   -3.2800894 0.0014617022 
   89300   0.99681867   -5.1140575   0.28039483   -3.3384881 -0.030920925 
   89400   0.99041981   -5.0504431   0.28036914   -3.2844973 -0.014149769 
   89500    0.9893926   -5.0352817   0.28336596   -3.2678798 -0.037577905 
   89600   0.98913125   -5.0582597   0.27704185    -3.297574 -0.010924988 
   89700   0.99086819   -5.0396419    0.2790698   -3.2743229 -0.021229394 
   89800   0.98544869   -5.1200696   0.27890026   -3.3630491 -0.034829675 
   89900     0.989153   -5.0841726   0.27442078   -3.3260753  -0.01597359 
   90000   0.99494891   -5.0647912   0.27453507    -3.297886 -0.014534976 
   90100   0.98873194   -5.0737764   0.27301294   -3.3177185 -0.041736819 
   90200   0.98958255    -5.037865   0.27995685   -3.2735873  -0.01821269 
   90300   0.99135606   -5.0338788   0.28273852   -3.2641593 -0.036580036 
   90400   0.99063633   -5.1154244   0.28536868   -3.3441543 -0.035919589 
   90500   0.98823288   -5.0429833   0.27401145   -3.2866755  0.012305193 
   90600    0.9846593   -5.0800975   0.28032807   -3.3228332 -0.021064573 
   90700   0.99004672    -5.071332   0.28585078   -3.3004642 -0.029963998 
   90800   0.98959973   -5.0115226   0.27723972   -3.2499363  -0.01466905 
   90900   0.99322369   -5.0524585   0.27095491   -3.2917213 -0.022268752 
   91000   0.99233358   -5.0382051     0.280882   -3.2688759 -0.019189401 
   91100   0.99410414   -5.0924348   0.28184852   -3.3194833 -0.047060603 
   91200   0.98633911   -4.9793704   0.27794003   -3.2219746 -0.0034457244 
   91300   0.99438127    -5.096264   0.27591107   -3.3288343 -0.057939662 
   91400   0.99657984   -5.0330251   0.27738372   -3.2608251  0.018276058 
   91500   0.99261419   -5.0776197   0.28047549   -3.3082761 -0.013653529 
   91600   0.99569539   -5.0467079   0.27941367   -3.2738045 -0.021118231 
   91700   0.98908994   -5.0437018   0.27647255   -3.2836473 -0.030751487 
   91800    0.9962238   -5.0681091   0.28144742   -3.2923793 -0.052663709 
   91900   0.98380276   -5.0150708   0.28273815   -3.2566812  0.003088285 
   92000   0.99198068   -5.0491085   0.27244279   -3.2887478 -0.024555236 
   92100   0.99836098   -5.0821788   0.27736193   -3.3073288  -0.02587263 
   92200   0.98377408   -5.0301801   0.28458547   -3.2699862 -0.021744708 
   92300   0.98737222    -5.033451   0.28114659   -3.2712989 -0.036611958 
   92400   0.98469214   -5.0627202    0.2778193   -3.3079155 -0.046311623 
   92500   0.99308942   -5.0466239   0.27945888   -3.2775841 -0.037840661 
   92600   0.98806625   -5.0446773   0.28145358   -3.2811773 0.00088582575 
   92700   0.98225167   -5.1116736   0.28379492   -3.3545538 -0.070942606 
   92800   0.99216709   -5.0329449   0.27564377   -3.2691037  0.016475193 
   92900    0.9887389   -5.0536939   0.27513767   -3.2955008 -0.00063862448 
   93000   0.98854712   -5.1057781   0.27981757   -3.3431928 -0.045219531 
   93100   0.98972134   -5.0291288   0.27712083    -3.267479  0.036098136 
   93200   0.98744051    -5.046129   0.27521625   -3.2898049 -0.016708065 
   93300   0.98768169   -5.0401072   0.27975819   -3.2788794 -0.034904364 
   93400   0.98988057   -5.0751651   0.27745397   -3.3129433 -0.039263907 
   93500   0.99461742   -5.0204521   0.27951308   -3.2490662  0.021106123 
   93600   0.99567585   -5.0625794   0.27732375   -3.2917952 -0.021257945 
   93700   0.99372801    -5.066155   0.27949601   -3.2961202 -0.024454921 
   93800    0.9874965   -5.0455403   0.28176146    -3.282587 -0.027936267 
   93900   0.98748825   -5.0638464   0.28216114   -3.3005058 -0.065558361 
   94000    0.9853127   -4.9986648   0.28347005   -3.2372785 0.0038552337 
   94100   0.99058241    -5.068615   0.28501943   -3.2977751 -0.024044893 
   94200   0.99230424   -5.0451773   0.28415032   -3.2726238 -0.028022599 
   94300   0.98978336   -5.0721314   0.27562855   -3.3118809 -0.038818422 
   94400   0.99465379   -5.0211268   0.27579113   -3.2534082  0.017631913 
   94500   0.99386439   -5.0941736   0.27461495   -3.3288153 -0.044393041 
   94600   0.99051408   -5.0444806   0.27977648   -3.2789861 -0.026846756 
   94700   0.99539618   -5.0658825    0.2768542   -3.2959873 -0.054893826 
   94800    0.9905548   -5.0062509   0.28004565   -3.2404261 -0.045488874 
   94900   0.98964884   -5.0602155   0.28154886   -3.2942464 -0.034143096 
   95000   0.99336645      -5.0199   0.28003209   -3.2498714 -0.0087581248 
   95100   0.98932817   -5.0701279   0.28525315   -3.3009355 -0.019427543 
   95200   0.98986557   -5.0367849   0.27987074   -3.2721688 0.0025296679 
   95300   0.98515722   -5.0774697    0.2780611   -3.3217255 -0.041957549 
   95400   0.99483621   -4.9891023   0.27991879   -3.2169824 0.0088319075 
   95500   0.98500273   -5.0744944   0.27824899   -3.3187941 -0.040755121 
   95600    0.9887798   -4.9842635   0.27921234   -3.2219344  0.012918879 
   95700   0.98531437   -5.0713892     0.281541   -3.3119294 -0.021217625 
   95800   0.99540195   -5.0517427   0.27893867   -3.2797544 -0.023411887 
   95900   0.98406419    -5.024679   0.28150428   -3.2671312 -0.037296748 
   96000    1.0005815   -5.0420406    0.2775528   -3.2636692 0.0059025974 
   96100   0.99755086   -5.0391115   0.28052398   -3.2623147 -0.023412927 
   96200   0.99090397   -5.0668949   0.27731061   -3.3032814 -0.036913381 
   96300   0.99068168   -5.0666854   0.28033851   -3.3003774 -0.086964736 
   96400   0.99728798   -5.0631567   0.27296422   -3.2943139 -0.034220416 
   96500   0.98764212   -5.0559986     0.280911   -3.2936773 -0.026334553 
   96600   0.99254182   -5.0622729   0.28140586   -3.2921075 -0.036172175 
   96700   0.99129168   -5.0639341   0.27790739   -3.2991423 -0.011677285 
   96800   0.99305661   -5.0740323   0.28037921   -3.3041214 -0.028397347 
   96900    0.9946723   -5.0635413   0.28098454   -3.2906016 -0.033840966 
   97000    0.9841017   -5.0469083   0.26968303   -3.3011255  0.012201489 
   97100   0.98529157   -5.0333268   0.27618814   -3.2792541 -0.0072693528 
   97200   0.98560518   -5.0661037   0.28354843   -3.3042003 -0.015970812 
   97300   0.98877149   -5.0403652   0.28264157   -3.2746193 -0.034657881 
   97400   0.99398007   -5.0760684   0.28190228   -3.3032493 -0.045973451 
   97500   0.99116525   -5.0104757    0.2772015   -3.2465794 -0.0050842587 
   97600    0.9890087   -5.0824149   0.27540677    -3.323548  -0.08390628 
   97700     0.996181   -5.0279694   0.28124903   -3.2525022 -0.0032076074 
   97800   0.98910201   -5.0531008   0.27676069     -3.29274 -0.049829081 
   97900   0.99794824   -5.0089414   0.27716971   -3.2349028 -0.014447461 
   98000    1.0002239   -5.0922046   0.27284649   -3.3190758 -0.058037475 
   98100   0.99284528   -5.0397717    0.2764193   -3.2741376 0.0019135044 
   98200   0.98699891   -5.0469318   0.27457721   -3.2919091 -0.0066030034 
   98300   0.97693968   -5.0498383   0.27271825   -3.3117629 -0.025095408 
   98400   0.98960207   -5.0200065   0.27763134   -3.2580251  -0.02233359 
   98500   0.99634395   -5.0667941   0.28008042   -3.2922511 -0.028659645 
   98600    0.9955589   -5.0738481   0.27610662   -3.3044564 -0.013864451 
   98700   0.99207848   -5.0461629    0.2788217   -3.2792766 -0.041248084 
   98800   0.99784267   -5.0465519   0.27587699   -3.2739643 -0.049071281 
   98900   0.98853219    -5.050615     0.275406   -3.2924637 -9.5487429e-05 
   99000   0.99106685   -5.0371842   0.27816034   -3.2724767 -0.044922224 
   99100   0.98930072    -5.031046   0.27635183   -3.2707961 -0.059319479 
   99200   0.98433499   -5.0431391   0.27995654   -3.2867328 -0.021235103 
   99300   0.99512525   -5.0873129   0.28106608   -3.3136123 -0.064572049 
   99400   0.99347821    -5.022686   0.28345314   -3.2490688 -0.0014409287 
   99500   0.99231965   -5.0747723   0.27970339   -3.3066425 -0.035804937 
   99600   0.99138412   -5.0388365   0.27862026   -3.2731931 -0.017298175 
   99700    1.0043179   -5.0665423   0.27645929   -3.2836599 -0.030162817 
   99800    0.9825415   -5.0176585   0.27825466   -3.2656442 -0.029070462 
   99900   0.99114946   -5.0695409   0.28050515   -3.3023647 -0.022569036 
  100000   0.99832577   -5.0433384   0.27993356   -3.2659696 -0.051335301 
  100100   0.99200423   -5.0691733   0.27594566   -3.3052744 -0.043743869 
  100200   0.98701511   -5.0339657   0.28046258   -3.2730334 -0.026104453 
  100300   0.99253906   -5.0275906   0.27811584   -3.2607193 -0.0068992204 
  100400   0.99750506   -5.0607891   0.26818478   -3.2964001 -0.0017948087 
  100500    0.9855788   -5.0572059   0.27997628   -3.2989142 -0.016684227 
  100600   0.98984083   -5.0399671   0.28032871   -3.2749302 -0.0086310315 
  100700   0.98389467   -5.0246445   0.27328221    -3.275573 -0.023552292 
  100800   0.98729008   -5.0613432   0.28038831   -3.3000727 -0.034226725 
  100900   0.98112664   -5.0280294    0.2789823   -3.2774097 -0.0090168728 
  101000   0.99509175   -5.0471354   0.28536953   -3.2691815 -0.019800653 
  101100   0.98803473   -5.0060159   0.28251001   -3.2415067  0.010734978 
  101200   0.99798459   -5.0833906   0.27798198   -3.3084852   -0.0613558 
  101300   0.99206249   -5.0499179   0.28367182   -3.2782055 0.0016569458 
  101400   0.98693787   -5.0639515    0.2789588   -3.3046388 0.0059585775 
  101500   0.99974723   -5.0654539   0.27985375   -3.2860329 -0.047676727 
  101600   0.99100258   -5.0388952   0.27785005   -3.2745944 -0.010266411 
  101700   0.99211337   -5.0353025   0.27799505   -3.2691905  0.033007933 
  101800   0.99702297   -5.0749364   0.27521529   -3.3042401 -0.018545762 
  101900   0.98923833   -5.0652821   0.27818765   -3.3032899 -0.0069865584 
  102000   0.99212907   -5.0950382   0.28416107   -3.3227367 -0.047620054 
  102100   0.98779785   -5.0564125   0.28293398   -3.2918347  0.022269113 
  102200   0.98826925   -5.0504923   0.27912402   -3.2890173 -0.0053671688 
  102300   0.99201005   -5.0531719   0.27900121   -3.2862088 -0.0059627198 
  102400   0.97928403   -5.0924095   0.28218155   -3.3413544 -0.083020458 
  102500   0.99441673   -5.0271208   0.28535275   -3.2501963  -0.02553069 
  102600   0.99314572   -5.0779473   0.27629426   -3.3119876 -0.037806666 
  102700   0.99331174   -5.0374056   0.27923379   -3.2682574 -0.020470806 
  102800   0.98683516   -5.0519315   0.27671353   -3.2950181 -0.043493212 
  102900   0.98937594   -5.0589317   0.28353804   -3.2913827 -0.023106186 
  103000   0.99164177   -5.0724499   0.27700791   -3.3080324 -0.041646152 
  103100   0.99209391   -5.0562781   0.27673525   -3.2914551 -0.020160391 
  103200   0.99212759    -5.033113   0.27873278    -3.266242 -0.025085547 
  103300   0.98407738   -5.0464512   0.28433032   -3.2860575 -0.019505809 
  103400    0.9943377   -5.0780888   0.28165121   -3.3049843 -0.043788945 
  103500   0.99165026   -5.0433094   0.27665526   -3.2792319 -0.014210125 
  103600   0.98239907   -5.0108514   0.28053082   -3.2567746 -0.0081161506 
  103700   0.98572925   -5.0992148    0.2818357    -3.338838 -0.028079582 
  103800   0.99604923   -5.0368395   0.28347665   -3.2593423 -0.024150413 
  103900   0.98951658   -5.0649763   0.27892642   -3.3018281 0.0056493342 
  104000   0.99305679    -5.023014   0.28175356   -3.2517284 -0.012791173 
  104100   0.98401563   -5.0381792    0.2771499   -3.2850585 0.0012896477 
  104200     0.989708    -5.061203   0.27650341   -3.3001906 -0.010434709 
  104300   0.98916178   -5.0531285   0.27448309   -3.2949558 -0.071979672 
  104400   0.98738218   -5.0403686   0.28321701   -3.2761312 -0.021965106 
  104500   0.99944852    -5.092174    0.2822635   -3.3107912 -0.024756525 
  104600    0.9990278   -5.0324004   0.27891239   -3.2549999 -0.010006807 
  104700   0.99326926   -5.0773153   0.27668809   -3.3107765 -0.050561703 
  104800   0.98037912   -5.0482851   0.26876245   -3.3090065 -0.0065183143 
  104900   0.99237952   -5.0277636   0.27959055   -3.2596569 -0.036812012 
  105000    0.9940172   -5.0464558   0.28070529    -3.274778 -0.026242389 
  105100   0.99455725   -5.0472349   0.27879213   -3.2766601 -0.012137531 
  105200   0.99456017   -5.0791856    0.2736403   -3.3137583 -0.026180607 
  105300   0.99657511   -5.0854283   0.27456529   -3.3160538 -0.011759623 
  105400   0.98409914   -5.0559663   0.27592647   -3.3039439 -0.0045867982 
  105500   0.98391629   -5.0495533   0.27660987   -3.2971217 -0.045705144 
  105600   0.99776284   -5.0428397   0.27807172   -3.2681771 -0.039158209 
  105700   0.98434237   -5.0516563   0.28166642    -3.293529 -0.028091104 
  105800   0.99019598   -5.0637379   0.28385853   -3.2946384 -0.030780438 
  105900   0.98861513   -5.0395619   0.28016886   -3.2765233 -0.013838135 
  106000   0.98868938   -5.0870329   0.27640144   -3.3276504  -0.04402184 
  106100   0.98495922   -5.0997339     0.278735   -3.3436128 -0.034362763 
  106200   0.98737713   -5.0294594   0.28018533   -3.2682613   0.01338295 
  106300   0.99778816   -5.0783417   0.28164906   -3.3000639 -0.042524665 
  106400   0.99399261   -5.0654169    0.2809594   -3.2935218 -0.024307052 
  106500    0.9847452   -5.0732336   0.28104618   -3.3151224 -0.0019794324 
  106600   0.99925541   -5.0501451    0.2801586   -3.2711569 0.0028229859 
  106700   0.99238123    -5.092387   0.27046817   -3.3334002 -0.026355267 
  106800   0.98769236   -5.0430022    0.2822118   -3.2793048 -0.027071791 
  106900   0.99070777   -5.0738104   0.28503508   -3.3027667 -0.021404955 
  107000   0.98685063    -5.038499   0.27977514   -3.2785008  -0.02517361 
  107100   0.98346484   -5.0930836   0.28164924   -3.3362898 -0.028094274 
  107200   0.99462569   -5.0364811   0.27780867   -3.2667872 -0.031020777 
  107300   0.99079117   -5.0611575   0.28017603   -3.2948478 -0.032897811 
  107400   0.99244541   -5.0855863   0.28068788   -3.3162835 -0.050179105 
  107500   0.98636595   -5.0399858   0.27768055   -3.2828092 -0.035340915 
  107600   0.99823658   -5.0467602   0.28062737   -3.2688314 -0.025990267 
  107700   0.98931214   -5.0328512   0.27537271   -3.2735633 -0.0070062533 
  107800   0.98664435   -5.0754295   0.27726952   -3.3182463 -0.040859356 
  107900   0.98334494   -5.0433263   0.28086359   -3.2874979 -0.041723441 
  108000   0.98925994   -5.0321511   0.27867802   -3.2696362  -0.02613223 
  108100   0.98260793   -5.0777427   0.28309238   -3.3207911 -0.030241572 
  108200   0.99639682   -5.0586992    0.2812516   -3.2829058 -0.044993915 
  108300   0.98661799   -5.0536406   0.27785284   -3.2959136 -0.023568746 
  108400   0.99412863    -5.027528   0.28160499   -3.2547834 -0.0072396873 
  108500   0.98783309   -5.0476802    0.2792538   -3.2867297 -0.035419484 
  108600   0.98309332   -5.0691636   0.28269057   -3.3118857 -0.049461289 
  108700   0.98569134   -5.0577662    0.2780168   -3.3012652 -0.038527692 
  108800   0.98633159   -5.0506353   0.27273932   -3.2984515 -0.0070762593 
  108900   0.99626027   -5.0829264   0.28154657   -3.3070428  -0.03557858 
  109000   0.98376513   -5.0490801   0.27944718   -3.2940379 -0.001376234 
  109100   0.98812819   -5.0324318    0.2821409   -3.2681516 -0.011428906 
  109200   0.99577065   -5.1046062   0.27592846   -3.3350752 -0.064341254 
  109300   0.99276404   -5.0412434   0.27459222   -3.2775583  -0.02591145 
  109400   0.97948971     -5.05545   0.27828999   -3.3079779 -0.019268529 
  109500   0.98362377   -5.0905533   0.28436083   -3.3308096 -0.026667804 
  109600   0.98498535   -5.0772254   0.28338488   -3.3164153  -0.03813129 
  109700   0.99826462   -5.0392041   0.27991534   -3.2619453  0.010325471 
  109800   0.98938317   -5.0980562   0.26928444     -3.34475 -0.047016119 
  109900   0.99154429   -5.0241865    0.2818334   -3.2550897 -0.0064601941 
  110000   0.99562348   -5.1113696   0.27628563   -3.3417021 -0.045487834 
  110100   0.98326224   -5.0369547   0.27923439   -3.2828796 -0.021693561 
  110200   0.99656026   -5.0953402   0.28198114    -3.318572 -0.036467847 
  110300   0.98011543   -5.0825965   0.27994414   -3.3325317 -0.017063721 
  110400   0.99380489   -5.0707997    0.2871613   -3.2929843  -0.04381849 
  110500    1.0006779   -5.0638167   0.28306823   -3.2797852 -0.00073570378 
  110600    1.0009321   -5.0478324   0.27672689    -3.269761 0.0022875058 
  110700   0.99071798   -5.0211381   0.27764197   -3.2574723  -0.01267464 
  110800   0.98168768   -5.0551698   0.27652904   -3.3061618 -0.0078540949 
  110900    0.9834266   -5.0743222   0.27275148   -3.3264835 0.0083308007 
  111000   0.99337477   -5.0404319   0.27568078   -3.2747422 -0.014787403 
  111100   0.99037188   -5.0687268   0.27615843   -3.3070636 -0.052727296 
  111200   0.99571877   -5.0636673   0.27692202   -3.2932205 -0.045160764 
  111300   0.98612026   -5.0402181    0.2793453   -3.2817452 -0.0019606397 
  111400   0.99137338    -5.099817   0.28063288   -3.3321772 -0.072685132 
  111500   0.98304897   -4.9909478   0.28449798    -3.231929 -0.021863903 
  111600   0.99654049   -5.0474958   0.28169299   -3.2710454  -0.04322797 
  111700   0.98818616   -5.0265547   0.27712612   -3.2672023 -0.022363192 
  111800   0.99061581   -5.0631113    0.2819393   -3.2953014 -0.018403235 
  111900   0.99637711   -5.0485326   0.28409247   -3.2699278 0.00056799674 
  112000   0.98731071   -4.9990801   0.27923409   -3.2389328 0.0060517941 
  112100   0.98533136   -5.0682734   0.27915547   -3.3111737 -0.023275023 
  112200   0.99378166   -5.0665155   0.27667307   -3.2992232 -0.032645026 
  112300   0.98901188   -5.0449957   0.28337508   -3.2781558  -0.01923108 
  112400   0.99720928   -5.0820304   0.28092542   -3.3053445 0.0014030598 
  112500   0.98689004   -5.0527122   0.27821278   -3.2942172 -0.030210632 
  112600   0.98670424   -5.0541255   0.28067894   -3.2934431 -0.035591085 
  112700   0.98794679   -5.0547592   0.28094092   -3.2919511 -0.022416296 
  112800   0.99447962    -5.036024   0.28092967   -3.2634282 -0.025757548 
  112900    0.9982055   -5.0459473   0.27267456    -3.276018 -0.030609018 
  113000   0.99086212   -5.0703174   0.28168182   -3.3023955 -0.044776539 
  113100   0.99277352   -5.0791826   0.28164392   -3.3084316 -0.042535264 
  113200   0.99311741   -5.0716148   0.28133601   -3.3006559  -0.02222057 
  113300   0.98492551   -5.0475505   0.28179291   -3.2884221 -0.056022992 
  113400   0.99323368   -5.0947959   0.28137969   -3.3236189 -0.040272041 
  113500    0.9867827   -5.0412883   0.27775386   -3.2834132 -0.0088961509 
  113600   0.98935588   -5.0445703   0.27330885   -3.2872807 -0.058083412 
  113700   0.99065517   -5.0350089   0.27856407   -3.2705152 -0.0019619809 
  113800   0.98106843    -5.070349   0.27917009   -3.3196288 -0.0095211383 
  113900   0.98608161     -5.08681   0.27648451   -3.3312559 -0.055958153 
  114000   0.99088692   -5.0524263   0.27854812   -3.2876009 -0.0014210714 
  114100   0.99229053   -5.0560958   0.28549889   -3.2822142 -0.043518906 
  114200   0.99281673   -5.0687874   0.28283378   -3.2967817 -0.045234306 
  114300   0.99296381   -5.1010515   0.27910646   -3.3325525 -0.071927797 
  114400   0.99471527    -5.043947   0.28276479   -3.2691626  0.013877579 
  114500   0.99064754   -5.0880116   0.27785111   -3.3242423 -0.043203315 
  114600   0.98901504   -5.0226094   0.27788632   -3.2612535  0.042627252 
  114700   0.98311911   -5.0319074   0.28004568   -3.2772358 -0.034771947 
  114800   0.98444942   -5.1157554   0.27920704   -3.3599269 -0.060990106 
  114900   0.99214803   -5.0262276   0.27852782   -3.2595309  0.025165896 
  115000   0.99014287   -5.0580312   0.28087576   -3.2919942 -0.036062774 
  115100   0.99021976   -5.0675381   0.27490625   -3.3073552 -0.028741705 
  115200   0.99545661   -5.0678655    0.2781791   -3.2965548 -0.040851971 
  115300   0.99041152   -5.0336359   0.27521386   -3.2728578 -0.004386349 
  115400   0.99264167   -5.0468076   0.27828268   -3.2796155 0.0034952869 
  115500   0.99404768   -5.0264193   0.27825684   -3.2571442 -0.0047439446 
  115600   0.99348951   -5.0918162   0.27783358   -3.3238016 -0.063656194 
  115700   0.98606743   -5.0280708   0.28398653   -3.2650359 -0.016669769 
  115800   0.99024366   -5.0607895   0.27707592   -3.2984011   -0.0580872 
  115900   0.99261345   -5.0530798   0.28166864   -3.2825442 -0.024760521 
  116000   0.98545653   -5.0824666   0.28000811   -3.3243265 -0.050129387 
  116100   0.98581245   -5.0699919   0.27722518   -3.3141008 -0.017001034 
  116200   0.98161487   -5.0674433   0.27889617   -3.3161774 -0.015268814 
  116300   0.98671194   -5.0476618   0.28180445   -3.2858423 -0.020463459 
  116400   0.98253333   -5.0822994   0.28165883   -3.3268932 -0.042025964 
  116500   0.98189035   -5.0583156    0.2741729   -3.3113598 -0.032559948 
  116600   0.99570352   -5.0110427   0.27871268   -3.2388281 -0.0085463651 
  116700   0.98757712   -5.0649961   0.27921156   -3.3044717 -0.022658311 
  116800   0.98128193   -5.0496758   0.27958871   -3.2982168 -0.0097888389 
  116900   0.99246257   -5.0854298   0.27769993   -3.3190892 -0.077856917 
  117000   0.98973734   -5.1073657   0.27773783   -3.3450748 -0.031695813 
  117100   0.98135781    -5.074669   0.27980183   -3.3228831 -0.021171379 
  117200   0.99342794   -5.0376714   0.28173498   -3.2658477 -0.005375247 
  117300   0.98908053   -5.0757989   0.28206508    -3.310166 -0.047075277 
  117400    0.9897644   -5.0758251   0.27092262   -3.3203089 -0.0034097421 
  117500   0.99317811   -5.0165362   0.28141003   -3.2454122 0.0095729379 
  117600   0.99283408   -5.0707886   0.28249408   -3.2990965 -0.040224163 
  117700   0.99052975   -5.0468254   0.27995549   -3.2811283 0.0012584482 
  117800   0.99859535   -5.1029871   0.28324115   -3.3219065 -0.037276674 
  117900   0.99973941   -5.0243344   0.27921172   -3.2455671 0.0032918572 
  118000   0.99638976   -5.0718029   0.27910966    -3.298162  -0.04599801 
  118100   0.99504617   -5.0641771   0.28398027   -3.2876809  -0.04281455 
